LAMMPS data file via write_data, version 22 Jul 2025, timestep = 0, units = real, file prepared from DOI: 10.1016/j.micromeso.2022.112406. Thanks to Sofia Calero and Esteban Acuna-Yoemans

2208 atoms
10 atom types
2496 bonds
9 bond types
4608 angles
15 angle types
5760 dihedrals
12 dihedral types
576 impropers
2 improper types

0 33.982 xlo xhi
0 33.982 ylo yhi
0 33.982 zlo zhi
0 0 0 xy xz yz

Masses

1 65.38
2 14.0067
3 12.0107
4 12.0107
5 12.0107
6 1.00794
7 1.00794
8 1.00794
9 1.00794
10 39.948

Pair Coeffs # lj/cut

1 0.067 2.462
2 0.0373 3.261
3 0.0567 3.431
4 0.0567 3.431
5 0.0567 3.431
6 0.0238 2.571
7 0.0238 2.571
8 0.0238 2.571
9 0.0238 2.571
10 0.238066 3.4

Bond Coeffs # harmonic

1 317 1.492
2 488 1.339
3 410 1.371
4 367 0.929
5 518 1.346
6 86 1.987
7 340 0.959
8 340 0.959
9 340 0.959

Angle Coeffs # harmonic

1 70 112.17
2 70 123.89
3 70 108.67
4 50 125.67
5 50 125.66
6 70 105.24
7 50 127.5
8 35 128
9 10.5 109.47
10 50 109.44
11 50 109.44
12 50 109.44
13 35 109.5
14 35 109.5
15 35 109.5

Dihedral Coeffs # charmm

1 0.1 2 180 0
2 4.8 2 180 0
3 4.8 2 180 0
4 4 2 180 0
5 4 2 180 0
6 4 2 180 0
7 0.1 2 180 0
8 4.15 2 180 0
9 0.1 2 180 0
10 4.8 2 180 0
11 0.174 3 0 0
12 0.174 3 0 0

Improper Coeffs # cvff

1 1.1 -1 2
2 1.1 -1 2

Atoms # full

22 0 4 -0.191 1.71371226 6.26135341 5.3096875 0 0 0
23 0 6 0.1536 2.3974300999999985 6.4175007 4.6997106 0 0 0
28 0 2 -0.28 0.53827488 6.96172243 5.38988502 0 0 0
30 0 4 -0.191 6.26135341 1.71371226 5.3096875 0 0 0
31 0 6 0.1536 6.4175007 2.3974300999999985 4.6997106 0 0 0
33 0 2 -0.28 6.96172243 0.53827488 5.38988502 0 0 0
64 0 4 -0.191 6.26135341 5.3096875 1.71371226 0 0 0
65 0 6 0.1536 6.4175007 4.6997106 2.3974300999999985 0 0 0
70 0 2 -0.28 6.96172243 5.38988502 0.53827488 0 0 0
96 0 4 -0.191 5.3096875 6.26135341 1.71371226 0 0 0
97 0 6 0.1536 4.6997106 6.4175007 2.3974300999999985 0 0 0
98 0 2 -0.28 5.38988502 6.96172243 0.53827488 0 0 0
116 0 4 -0.191 5.3096875 1.71371226 6.26135341 0 0 0
117 0 6 0.1536 4.6997106 2.3974300999999985 6.4175007 0 0 0
121 0 2 -0.28 5.38988502 0.53827488 6.96172243 0 0 0
133 0 4 -0.191 1.71371226 5.3096875 6.26135341 0 0 0
134 0 6 0.1536 2.3974300999999985 4.6997106 6.4175007 0 0 0
135 0 2 -0.28 0.53827488 5.38988502 6.96172243 0 0 0
158 0 3 0.4184 2.08904345 8.3612711 2.08904345 0 0 0
161 0 5 -0.5726 1.5954549 7.0427695 1.5954549 0 0 0
162 0 7 0.1481 0.7017283 7.1396182 1.2624313 0 0 0
163 0 8 0.1481 1.6005522 6.409005199999999 2.3175724 0 0 0
164 0 9 0.1481 2.168051599999999 6.7301351 0.8920275 0 0 0
182 0 3 0.4184 8.3612711 2.08904345 2.08904345 0 0 0
185 0 5 -0.5726 7.0427695 1.5954549 1.5954549 0 0 0
215 0 3 0.4184 2.08904345 2.08904345 8.3612711 0 0 0
218 0 5 -0.5726 1.5954549 1.5954549 7.0427695 0 0 0
219 0 7 0.1481 0.7017283 1.2624313 7.1396182 0 0 0
220 0 8 0.1481 1.6005522 2.3175724 6.409005199999999 0 0 0
221 0 9 0.1481 2.168051599999999 0.8920275 6.7301351 0 0 0
258 0 7 0.1481 7.1396182 1.2624313 0.7017283 0 0 0
259 0 8 0.1481 6.409005199999999 2.3175724 1.6005522 0 0 0
260 0 9 0.1481 6.7301351 0.8920275 2.168051599999999 0 0 0
21 0 3 0.4184 16.8567711 6.40645655 6.40645655 0 0 0
24 0 5 -0.5726 15.5382695 6.900045099999998 6.900045099999998 0 0 0
25 0 7 0.1481 15.6351182 7.7937717 7.2330687 0 0 0
26 0 8 0.1481 14.9045052 6.8949478 6.1779276 0 0 0
27 0 9 0.1481 15.2256351 6.327448399999999 7.603472499999997 0 0 0
34 0 1 0.6894 8.4955 0 4.24775 0 0 0
41 0 3 0.4184 10.58454345 0.1342289 6.40645655 0 0 0
44 0 5 -0.5726 10.0909549 1.4527305 6.900045099999998 0 0 0
45 0 7 0.1481 9.197228299999994 1.3558818 7.2330687 0 0 0
46 0 8 0.1481 10.0960522 2.0864948 6.1779276 0 0 0
47 0 9 0.1481 10.663551599999998 1.7653648999999998 7.603472499999997 0 0 0
57 0 3 0.4184 10.58454345 6.40645655 0.1342289 0 0 0
60 0 5 -0.5726 10.0909549 6.900045099999998 1.4527305 0 0 0
71 0 1 0.6894 8.4955 4.24775 0 0 0 0
92 0 7 0.1481 9.197228299999994 7.2330687 1.3558818 0 0 0
93 0 8 0.1481 10.0960522 6.1779276 2.0864948 0 0 0
94 0 9 0.1481 10.663551599999998 7.603472499999997 1.7653648999999998 0 0 0
146 0 4 -0.191 14.75685341 6.781787739999999 3.1858125 0 0 0
147 0 6 0.1536 14.913000699999992 6.0980699 3.7957894 0 0 0
152 0 2 -0.28 15.457222429999998 7.95722512 3.10561498 0 0 0
183 0 4 -0.191 10.20921226 2.23414659 3.1858125 0 0 0
184 0 6 0.1536 10.892930099999997 2.0779993 3.7957894 0 0 0
186 0 2 -0.28 9.03377488 1.53377757 3.10561498 0 0 0
211 0 4 -0.191 13.805187499999992 2.23414659 6.781787739999999 0 0 0
212 0 6 0.1536 13.1952106 2.0779993 6.0980699 0 0 0
214 0 2 -0.28 13.88538502 1.53377757 7.95722512 0 0 0
235 0 4 -0.191 14.75685341 3.1858125 6.781787739999999 0 0 0
236 0 6 0.1536 14.913000699999992 3.7957894 6.0980699 0 0 0
240 0 2 -0.28 15.457222429999998 3.10561498 7.95722512 0 0 0
256 0 4 -0.191 10.20921226 3.1858125 2.23414659 0 0 0
257 0 6 0.1536 10.892930099999997 3.7957894 2.0779993 0 0 0
261 0 2 -0.28 9.03377488 3.10561498 1.53377757 0 0 0
271 0 4 -0.191 13.805187499999992 6.781787739999999 2.23414659 0 0 0
272 0 6 0.1536 13.1952106 6.0980699 2.0779993 0 0 0
273 0 2 -0.28 13.88538502 7.95722512 1.53377757 0 0 0
1126 0 4 -0.191 18.70471225999999 6.26135341 5.3096875 0 0 0
1127 0 6 0.1536 19.3884301 6.4175007 4.6997106 0 0 0
1132 0 2 -0.28 17.52927488 6.96172243 5.38988502 0 0 0
1134 0 4 -0.191 23.25235341 1.71371226 5.3096875 0 0 0
1135 0 6 0.1536 23.4085007 2.3974300999999985 4.6997106 0 0 0
1137 0 2 -0.28 23.95272243 0.53827488 5.38988502 0 0 0
1168 0 4 -0.191 23.25235341 5.3096875 1.71371226 0 0 0
1169 0 6 0.1536 23.4085007 4.6997106 2.3974300999999985 0 0 0
1174 0 2 -0.28 23.95272243 5.38988502 0.53827488 0 0 0
1200 0 4 -0.191 22.3006875 6.26135341 1.71371226 0 0 0
1201 0 6 0.1536 21.6907106 6.4175007 2.3974300999999985 0 0 0
1202 0 2 -0.28 22.38088502 6.96172243 0.53827488 0 0 0
1220 0 4 -0.191 22.3006875 1.71371226 6.26135341 0 0 0
1221 0 6 0.1536 21.6907106 2.3974300999999985 6.4175007 0 0 0
1225 0 2 -0.28 22.38088502 0.53827488 6.96172243 0 0 0
1237 0 4 -0.191 18.70471225999999 5.3096875 6.26135341 0 0 0
1238 0 6 0.1536 19.3884301 4.6997106 6.4175007 0 0 0
1239 0 2 -0.28 17.52927488 5.38988502 6.96172243 0 0 0
1262 0 3 0.4184 19.08004345 8.3612711 2.08904345 0 0 0
1265 0 5 -0.5726 18.586454899999993 7.0427695 1.5954549 0 0 0
1266 0 7 0.1481 17.6927283 7.1396182 1.2624313 0 0 0
1267 0 8 0.1481 18.591552199999988 6.409005199999999 2.3175724 0 0 0
1268 0 9 0.1481 19.1590516 6.7301351 0.8920275 0 0 0
1286 0 3 0.4184 25.3522711 2.08904345 2.08904345 0 0 0
1289 0 5 -0.5726 24.0337695 1.5954549 1.5954549 0 0 0
1319 0 3 0.4184 19.08004345 2.08904345 8.3612711 0 0 0
1322 0 5 -0.5726 18.586454899999993 1.5954549 7.0427695 0 0 0
1323 0 7 0.1481 17.6927283 1.2624313 7.1396182 0 0 0
1324 0 8 0.1481 18.591552199999988 2.3175724 6.409005199999999 0 0 0
1325 0 9 0.1481 19.1590516 0.8920275 6.7301351 0 0 0
1362 0 7 0.1481 24.1306182 1.2624313 0.7017283 0 0 0
1363 0 8 0.1481 23.4000052 2.3175724 1.6005522 0 0 0
1364 0 9 0.1481 23.7211351 0.8920275 2.168051599999999 0 0 0
1125 0 3 0.4184 33.8477711 6.40645655 6.40645655 0 0 0
1128 0 5 -0.5726 32.5292695 6.900045099999998 6.900045099999998 0 0 0
1129 0 7 0.1481 32.6261182 7.7937717 7.2330687 0 0 0
1130 0 8 0.1481 31.8955052 6.8949478 6.1779276 0 0 0
1131 0 9 0.1481 32.2166351 6.327448399999999 7.603472499999997 0 0 0
1138 0 1 0.6894 25.4865 0 4.24775 0 0 0
1145 0 3 0.4184 27.57554345 0.1342289 6.40645655 0 0 0
1148 0 5 -0.5726 27.08195489999999 1.4527305 6.900045099999998 0 0 0
1149 0 7 0.1481 26.1882283 1.3558818 7.2330687 0 0 0
1150 0 8 0.1481 27.08705219999998 2.0864948 6.1779276 0 0 0
1151 0 9 0.1481 27.6545516 1.7653648999999998 7.603472499999997 0 0 0
1161 0 3 0.4184 27.57554345 6.40645655 0.1342289 0 0 0
1164 0 5 -0.5726 27.08195489999999 6.900045099999998 1.4527305 0 0 0
1175 0 1 0.6894 25.4865 4.24775 0 0 0 0
1196 0 7 0.1481 26.1882283 7.2330687 1.3558818 0 0 0
1197 0 8 0.1481 27.08705219999998 6.1779276 2.0864948 0 0 0
1198 0 9 0.1481 27.6545516 7.603472499999997 1.7653648999999998 0 0 0
1250 0 4 -0.191 31.74785341 6.781787739999999 3.1858125 0 0 0
1251 0 6 0.1536 31.904000699999997 6.0980699 3.7957894 0 0 0
1256 0 2 -0.28 32.44822243 7.95722512 3.10561498 0 0 0
1287 0 4 -0.191 27.200212259999986 2.23414659 3.1858125 0 0 0
1288 0 6 0.1536 27.8839301 2.0779993 3.7957894 0 0 0
1290 0 2 -0.28 26.02477488 1.53377757 3.10561498 0 0 0
1315 0 4 -0.191 30.796187499999995 2.23414659 6.781787739999999 0 0 0
1316 0 6 0.1536 30.1862106 2.0779993 6.0980699 0 0 0
1318 0 2 -0.28 30.87638502 1.53377757 7.95722512 0 0 0
1339 0 4 -0.191 31.74785341 3.1858125 6.781787739999999 0 0 0
1340 0 6 0.1536 31.904000699999997 3.7957894 6.0980699 0 0 0
1344 0 2 -0.28 32.44822243 3.10561498 7.95722512 0 0 0
1360 0 4 -0.191 27.200212259999986 3.1858125 2.23414659 0 0 0
1361 0 6 0.1536 27.8839301 3.7957894 2.0779993 0 0 0
1365 0 2 -0.28 26.02477488 3.10561498 1.53377757 0 0 0
1375 0 4 -0.191 30.796187499999995 6.781787739999999 2.23414659 0 0 0
1376 0 6 0.1536 30.1862106 6.0980699 2.0779993 0 0 0
1377 0 2 -0.28 30.87638502 7.95722512 1.53377757 0 0 0
7 0 3 0.4184 0.1342289 10.58454345 6.40645655 0 0 0
10 0 5 -0.5726 1.4527305 10.0909549 6.900045099999998 0 0 0
12 0 1 0.6894 0 8.4955 4.24775 0 0 0
29 0 3 0.4184 6.40645655 16.8567711 6.40645655 0 0 0
32 0 5 -0.5726 6.900045099999998 15.5382695 6.900045099999998 0 0 0
72 0 3 0.4184 6.40645655 10.58454345 0.1342289 0 0 0
75 0 5 -0.5726 6.900045099999998 10.0909549 1.4527305 0 0 0
77 0 1 0.6894 4.24775 8.4955 0 0 0 0
101 0 7 0.1481 7.7937717 9.7579313 1.3558818 0 0 0
102 0 8 0.1481 6.8949478 10.8130724 2.0864948 0 0 0
103 0 9 0.1481 6.327448399999999 9.3875275 1.7653648999999998 0 0 0
107 0 7 0.1481 1.3558818 9.7579313 7.7937717 0 0 0
108 0 8 0.1481 2.0864948 10.8130724 6.8949478 0 0 0
109 0 9 0.1481 1.7653648999999998 9.3875275 6.327448399999999 0 0 0
118 0 7 0.1481 7.2330687 15.6351182 7.7937717 0 0 0
119 0 8 0.1481 6.1779276 14.9045052 6.8949478 0 0 0
120 0 9 0.1481 7.603472499999997 15.2256351 6.327448399999999 0 0 0
159 0 4 -0.191 2.23414659 10.20921226 3.1858125 0 0 0
160 0 6 0.1536 2.0779993 10.892930099999997 3.7957894 0 0 0
165 0 2 -0.28 1.53377757 9.03377488 3.10561498 0 0 0
193 0 4 -0.191 6.781787739999999 14.75685341 3.1858125 0 0 0
194 0 6 0.1536 6.0980699 14.913000699999992 3.7957894 0 0 0
196 0 2 -0.28 7.95722512 15.457222429999998 3.10561498 0 0 0
198 0 4 -0.191 3.1858125 14.75685341 6.781787739999999 0 0 0
199 0 6 0.1536 3.7957894 14.913000699999992 6.0980699 0 0 0
201 0 2 -0.28 3.10561498 15.457222429999998 7.95722512 0 0 0
226 0 4 -0.191 2.23414659 13.805187499999992 6.781787739999999 0 0 0
227 0 6 0.1536 2.0779993 13.1952106 6.0980699 0 0 0
231 0 2 -0.28 1.53377757 13.88538502 7.95722512 0 0 0
247 0 4 -0.191 6.781787739999999 13.805187499999992 2.23414659 0 0 0
248 0 6 0.1536 6.0980699 13.1952106 2.0779993 0 0 0
252 0 2 -0.28 7.95722512 13.88538502 1.53377757 0 0 0
274 0 4 -0.191 3.1858125 10.20921226 2.23414659 0 0 0
275 0 6 0.1536 3.7957894 10.892930099999997 2.0779993 0 0 0
276 0 2 -0.28 3.10561498 9.03377488 1.53377757 0 0 0
8 0 4 -0.191 15.27728774 10.72964659 5.3096875 0 0 0
9 0 6 0.1536 14.5935699 10.5734993 4.6997106 0 0 0
11 0 2 -0.28 16.45272512 10.02927757 5.38988502 0 0 0
42 0 4 -0.191 10.72964659 15.27728774 5.3096875 0 0 0
43 0 6 0.1536 10.5734993 14.5935699 4.6997106 0 0 0
48 0 2 -0.28 10.02927757 16.45272512 5.38988502 0 0 0
62 0 1 0.6894 12.74325 8.4955 0 0 0 0
79 0 4 -0.191 10.72964659 11.6813125 1.71371226 0 0 0
80 0 6 0.1536 10.5734993 12.2912894 2.3974300999999985 0 0 0
85 0 2 -0.28 10.02927757 11.60111498 0.53827488 0 0 0
86 0 1 0.6894 8.4955 12.74325 0 0 0 0
87 0 4 -0.191 11.6813125 10.72964659 1.71371226 0 0 0
88 0 6 0.1536 12.2912894 10.5734993 2.3974300999999985 0 0 0
89 0 2 -0.28 11.60111498 10.02927757 0.53827488 0 0 0
105 0 4 -0.191 15.27728774 11.6813125 6.26135341 0 0 0
106 0 6 0.1536 14.5935699 12.2912894 6.4175007 0 0 0
110 0 2 -0.28 16.45272512 11.60111498 6.96172243 0 0 0
129 0 4 -0.191 11.6813125 15.27728774 6.26135341 0 0 0
130 0 6 0.1536 12.2912894 14.5935699 6.4175007 0 0 0
131 0 2 -0.28 11.60111498 16.45272512 6.96172243 0 0 0
145 0 3 0.4184 14.90195655 8.6297289 2.08904345 0 0 0
148 0 5 -0.5726 15.3955451 9.948230499999994 1.5954549 0 0 0
149 0 7 0.1481 16.2892717 9.851381799999993 1.2624313 0 0 0
150 0 8 0.1481 15.3904478 10.5819948 2.3175724 0 0 0
151 0 9 0.1481 14.8229484 10.2608649 0.8920275 0 0 0
192 0 3 0.4184 8.6297289 14.90195655 2.08904345 0 0 0
195 0 5 -0.5726 9.948230499999994 15.3955451 1.5954549 0 0 0
202 0 3 0.4184 14.90195655 14.90195655 8.3612711 0 0 0
205 0 5 -0.5726 15.3955451 15.3955451 7.0427695 0 0 0
206 0 7 0.1481 16.2892717 15.728568699999993 7.1396182 0 0 0
207 0 8 0.1481 15.3904478 14.6734276 6.409005199999999 0 0 0
208 0 9 0.1481 14.8229484 16.0989725 6.7301351 0 0 0
249 0 7 0.1481 9.851381799999993 15.728568699999993 0.7017283 0 0 0
250 0 8 0.1481 10.5819948 14.6734276 1.6005522 0 0 0
251 0 9 0.1481 10.2608649 16.0989725 2.168051599999999 0 0 0
1111 0 3 0.4184 17.1252289 10.58454345 6.40645655 0 0 0
1114 0 5 -0.5726 18.4437305 10.0909549 6.900045099999998 0 0 0
1116 0 1 0.6894 16.991 8.4955 4.24775 0 0 0
1133 0 3 0.4184 23.39745655 16.8567711 6.40645655 0 0 0
1136 0 5 -0.5726 23.8910451 15.5382695 6.900045099999998 0 0 0
1176 0 3 0.4184 23.39745655 10.58454345 0.1342289 0 0 0
1179 0 5 -0.5726 23.8910451 10.0909549 1.4527305 0 0 0
1181 0 1 0.6894 21.23875 8.4955 0 0 0 0
1205 0 7 0.1481 24.784771699999997 9.7579313 1.3558818 0 0 0
1206 0 8 0.1481 23.885947799999983 10.8130724 2.0864948 0 0 0
1207 0 9 0.1481 23.3184484 9.3875275 1.7653648999999998 0 0 0
1211 0 7 0.1481 18.3468818 9.7579313 7.7937717 0 0 0
1212 0 8 0.1481 19.0774948 10.8130724 6.8949478 0 0 0
1213 0 9 0.1481 18.7563649 9.3875275 6.327448399999999 0 0 0
1222 0 7 0.1481 24.2240687 15.6351182 7.7937717 0 0 0
1223 0 8 0.1481 23.1689276 14.9045052 6.8949478 0 0 0
1224 0 9 0.1481 24.59447249999999 15.2256351 6.327448399999999 0 0 0
1263 0 4 -0.191 19.22514659 10.20921226 3.1858125 0 0 0
1264 0 6 0.1536 19.0689993 10.892930099999997 3.7957894 0 0 0
1269 0 2 -0.28 18.52477757 9.03377488 3.10561498 0 0 0
1297 0 4 -0.191 23.77278774 14.75685341 3.1858125 0 0 0
1298 0 6 0.1536 23.089069899999995 14.913000699999992 3.7957894 0 0 0
1300 0 2 -0.28 24.94822512 15.457222429999998 3.10561498 0 0 0
1302 0 4 -0.191 20.1768125 14.75685341 6.781787739999999 0 0 0
1303 0 6 0.1536 20.7867894 14.913000699999992 6.0980699 0 0 0
1305 0 2 -0.28 20.09661498 15.457222429999998 7.95722512 0 0 0
1330 0 4 -0.191 19.22514659 13.805187499999992 6.781787739999999 0 0 0
1331 0 6 0.1536 19.0689993 13.1952106 6.0980699 0 0 0
1335 0 2 -0.28 18.52477757 13.88538502 7.95722512 0 0 0
1351 0 4 -0.191 23.77278774 13.805187499999992 2.23414659 0 0 0
1352 0 6 0.1536 23.089069899999995 13.1952106 2.0779993 0 0 0
1356 0 2 -0.28 24.94822512 13.88538502 1.53377757 0 0 0
1378 0 4 -0.191 20.1768125 10.20921226 2.23414659 0 0 0
1379 0 6 0.1536 20.7867894 10.892930099999997 2.0779993 0 0 0
1380 0 2 -0.28 20.09661498 9.03377488 1.53377757 0 0 0
1112 0 4 -0.191 32.26828774 10.72964659 5.3096875 0 0 0
1113 0 6 0.1536 31.58456989999999 10.5734993 4.6997106 0 0 0
1115 0 2 -0.28 33.44372512 10.02927757 5.38988502 0 0 0
1146 0 4 -0.191 27.72064659 15.27728774 5.3096875 0 0 0
1147 0 6 0.1536 27.5644993 14.5935699 4.6997106 0 0 0
1152 0 2 -0.28 27.02027757 16.45272512 5.38988502 0 0 0
1166 0 1 0.6894 29.73425 8.4955 0 0 0 0
1183 0 4 -0.191 27.72064659 11.6813125 1.71371226 0 0 0
1184 0 6 0.1536 27.5644993 12.2912894 2.3974300999999985 0 0 0
1189 0 2 -0.28 27.02027757 11.60111498 0.53827488 0 0 0
1190 0 1 0.6894 25.4865 12.74325 0 0 0 0
1191 0 4 -0.191 28.6723125 10.72964659 1.71371226 0 0 0
1192 0 6 0.1536 29.2822894 10.5734993 2.3974300999999985 0 0 0
1193 0 2 -0.28 28.59211498 10.02927757 0.53827488 0 0 0
1209 0 4 -0.191 32.26828774 11.6813125 6.26135341 0 0 0
1210 0 6 0.1536 31.58456989999999 12.2912894 6.4175007 0 0 0
1214 0 2 -0.28 33.44372512 11.60111498 6.96172243 0 0 0
1233 0 4 -0.191 28.6723125 15.27728774 6.26135341 0 0 0
1234 0 6 0.1536 29.2822894 14.5935699 6.4175007 0 0 0
1235 0 2 -0.28 28.59211498 16.45272512 6.96172243 0 0 0
1249 0 3 0.4184 31.89295655 8.6297289 2.08904345 0 0 0
1252 0 5 -0.5726 32.3865451 9.948230499999994 1.5954549 0 0 0
1253 0 7 0.1481 33.2802717 9.851381799999993 1.2624313 0 0 0
1254 0 8 0.1481 32.3814478 10.5819948 2.3175724 0 0 0
1255 0 9 0.1481 31.8139484 10.2608649 0.8920275 0 0 0
1296 0 3 0.4184 25.6207289 14.90195655 2.08904345 0 0 0
1299 0 5 -0.5726 26.939230499999997 15.3955451 1.5954549 0 0 0
1306 0 3 0.4184 31.89295655 14.90195655 8.3612711 0 0 0
1309 0 5 -0.5726 32.3865451 15.3955451 7.0427695 0 0 0
1310 0 7 0.1481 33.2802717 15.728568699999993 7.1396182 0 0 0
1311 0 8 0.1481 32.3814478 14.6734276 6.409005199999999 0 0 0
1312 0 9 0.1481 31.8139484 16.0989725 6.7301351 0 0 0
1353 0 7 0.1481 26.8423818 15.728568699999993 0.7017283 0 0 0
1354 0 8 0.1481 27.5729948 14.6734276 1.6005522 0 0 0
1355 0 9 0.1481 27.2518649 16.0989725 2.168051599999999 0 0 0
574 0 4 -0.191 1.71371226 23.25235341 5.3096875 0 0 0
575 0 6 0.1536 2.3974300999999985 23.4085007 4.6997106 0 0 0
580 0 2 -0.28 0.53827488 23.95272243 5.38988502 0 0 0
582 0 4 -0.191 6.26135341 18.70471225999999 5.3096875 0 0 0
583 0 6 0.1536 6.4175007 19.3884301 4.6997106 0 0 0
585 0 2 -0.28 6.96172243 17.52927488 5.38988502 0 0 0
616 0 4 -0.191 6.26135341 22.3006875 1.71371226 0 0 0
617 0 6 0.1536 6.4175007 21.6907106 2.3974300999999985 0 0 0
622 0 2 -0.28 6.96172243 22.38088502 0.53827488 0 0 0
648 0 4 -0.191 5.3096875 23.25235341 1.71371226 0 0 0
649 0 6 0.1536 4.6997106 23.4085007 2.3974300999999985 0 0 0
650 0 2 -0.28 5.38988502 23.95272243 0.53827488 0 0 0
668 0 4 -0.191 5.3096875 18.70471225999999 6.26135341 0 0 0
669 0 6 0.1536 4.6997106 19.3884301 6.4175007 0 0 0
673 0 2 -0.28 5.38988502 17.52927488 6.96172243 0 0 0
685 0 4 -0.191 1.71371226 22.3006875 6.26135341 0 0 0
686 0 6 0.1536 2.3974300999999985 21.6907106 6.4175007 0 0 0
687 0 2 -0.28 0.53827488 22.38088502 6.96172243 0 0 0
710 0 3 0.4184 2.08904345 25.3522711 2.08904345 0 0 0
713 0 5 -0.5726 1.5954549 24.0337695 1.5954549 0 0 0
714 0 7 0.1481 0.7017283 24.1306182 1.2624313 0 0 0
715 0 8 0.1481 1.6005522 23.4000052 2.3175724 0 0 0
716 0 9 0.1481 2.168051599999999 23.7211351 0.8920275 0 0 0
734 0 3 0.4184 8.3612711 19.08004345 2.08904345 0 0 0
737 0 5 -0.5726 7.0427695 18.586454899999993 1.5954549 0 0 0
767 0 3 0.4184 2.08904345 19.08004345 8.3612711 0 0 0
770 0 5 -0.5726 1.5954549 18.586454899999993 7.0427695 0 0 0
771 0 7 0.1481 0.7017283 18.2534313 7.1396182 0 0 0
772 0 8 0.1481 1.6005522 19.30857239999999 6.409005199999999 0 0 0
773 0 9 0.1481 2.168051599999999 17.8830275 6.7301351 0 0 0
810 0 7 0.1481 7.1396182 18.2534313 0.7017283 0 0 0
811 0 8 0.1481 6.409005199999999 19.30857239999999 1.6005522 0 0 0
812 0 9 0.1481 6.7301351 17.8830275 2.168051599999999 0 0 0
573 0 3 0.4184 16.8567711 23.39745655 6.40645655 0 0 0
576 0 5 -0.5726 15.5382695 23.8910451 6.900045099999998 0 0 0
577 0 7 0.1481 15.6351182 24.784771699999997 7.2330687 0 0 0
578 0 8 0.1481 14.9045052 23.885947799999983 6.1779276 0 0 0
579 0 9 0.1481 15.2256351 23.3184484 7.603472499999997 0 0 0
586 0 1 0.6894 8.4955 16.991 4.24775 0 0 0
593 0 3 0.4184 10.58454345 17.1252289 6.40645655 0 0 0
596 0 5 -0.5726 10.0909549 18.4437305 6.900045099999998 0 0 0
597 0 7 0.1481 9.197228299999994 18.3468818 7.2330687 0 0 0
598 0 8 0.1481 10.0960522 19.0774948 6.1779276 0 0 0
599 0 9 0.1481 10.663551599999998 18.7563649 7.603472499999997 0 0 0
609 0 3 0.4184 10.58454345 23.39745655 0.1342289 0 0 0
612 0 5 -0.5726 10.0909549 23.8910451 1.4527305 0 0 0
623 0 1 0.6894 8.4955 21.23875 0 0 0 0
644 0 7 0.1481 9.197228299999994 24.2240687 1.3558818 0 0 0
645 0 8 0.1481 10.0960522 23.1689276 2.0864948 0 0 0
646 0 9 0.1481 10.663551599999998 24.59447249999999 1.7653648999999998 0 0 0
698 0 4 -0.191 14.75685341 23.77278774 3.1858125 0 0 0
699 0 6 0.1536 14.913000699999992 23.089069899999995 3.7957894 0 0 0
704 0 2 -0.28 15.457222429999998 24.94822512 3.10561498 0 0 0
735 0 4 -0.191 10.20921226 19.22514659 3.1858125 0 0 0
736 0 6 0.1536 10.892930099999997 19.0689993 3.7957894 0 0 0
738 0 2 -0.28 9.03377488 18.52477757 3.10561498 0 0 0
763 0 4 -0.191 13.805187499999992 19.22514659 6.781787739999999 0 0 0
764 0 6 0.1536 13.1952106 19.0689993 6.0980699 0 0 0
766 0 2 -0.28 13.88538502 18.52477757 7.95722512 0 0 0
787 0 4 -0.191 14.75685341 20.1768125 6.781787739999999 0 0 0
788 0 6 0.1536 14.913000699999992 20.7867894 6.0980699 0 0 0
792 0 2 -0.28 15.457222429999998 20.09661498 7.95722512 0 0 0
808 0 4 -0.191 10.20921226 20.1768125 2.23414659 0 0 0
809 0 6 0.1536 10.892930099999997 20.7867894 2.0779993 0 0 0
813 0 2 -0.28 9.03377488 20.09661498 1.53377757 0 0 0
823 0 4 -0.191 13.805187499999992 23.77278774 2.23414659 0 0 0
824 0 6 0.1536 13.1952106 23.089069899999995 2.0779993 0 0 0
825 0 2 -0.28 13.88538502 24.94822512 1.53377757 0 0 0
1678 0 4 -0.191 18.70471225999999 23.25235341 5.3096875 0 0 0
1679 0 6 0.1536 19.3884301 23.4085007 4.6997106 0 0 0
1684 0 2 -0.28 17.52927488 23.95272243 5.38988502 0 0 0
1686 0 4 -0.191 23.25235341 18.70471225999999 5.3096875 0 0 0
1687 0 6 0.1536 23.4085007 19.3884301 4.6997106 0 0 0
1689 0 2 -0.28 23.95272243 17.52927488 5.38988502 0 0 0
1720 0 4 -0.191 23.25235341 22.3006875 1.71371226 0 0 0
1721 0 6 0.1536 23.4085007 21.6907106 2.3974300999999985 0 0 0
1726 0 2 -0.28 23.95272243 22.38088502 0.53827488 0 0 0
1752 0 4 -0.191 22.3006875 23.25235341 1.71371226 0 0 0
1753 0 6 0.1536 21.6907106 23.4085007 2.3974300999999985 0 0 0
1754 0 2 -0.28 22.38088502 23.95272243 0.53827488 0 0 0
1772 0 4 -0.191 22.3006875 18.70471225999999 6.26135341 0 0 0
1773 0 6 0.1536 21.6907106 19.3884301 6.4175007 0 0 0
1777 0 2 -0.28 22.38088502 17.52927488 6.96172243 0 0 0
1789 0 4 -0.191 18.70471225999999 22.3006875 6.26135341 0 0 0
1790 0 6 0.1536 19.3884301 21.6907106 6.4175007 0 0 0
1791 0 2 -0.28 17.52927488 22.38088502 6.96172243 0 0 0
1814 0 3 0.4184 19.08004345 25.3522711 2.08904345 0 0 0
1817 0 5 -0.5726 18.586454899999993 24.0337695 1.5954549 0 0 0
1818 0 7 0.1481 17.6927283 24.1306182 1.2624313 0 0 0
1819 0 8 0.1481 18.591552199999988 23.4000052 2.3175724 0 0 0
1820 0 9 0.1481 19.1590516 23.7211351 0.8920275 0 0 0
1838 0 3 0.4184 25.3522711 19.08004345 2.08904345 0 0 0
1841 0 5 -0.5726 24.0337695 18.586454899999993 1.5954549 0 0 0
1871 0 3 0.4184 19.08004345 19.08004345 8.3612711 0 0 0
1874 0 5 -0.5726 18.586454899999993 18.586454899999993 7.0427695 0 0 0
1875 0 7 0.1481 17.6927283 18.2534313 7.1396182 0 0 0
1876 0 8 0.1481 18.591552199999988 19.30857239999999 6.409005199999999 0 0 0
1877 0 9 0.1481 19.1590516 17.8830275 6.7301351 0 0 0
1914 0 7 0.1481 24.1306182 18.2534313 0.7017283 0 0 0
1915 0 8 0.1481 23.4000052 19.30857239999999 1.6005522 0 0 0
1916 0 9 0.1481 23.7211351 17.8830275 2.168051599999999 0 0 0
1677 0 3 0.4184 33.8477711 23.39745655 6.40645655 0 0 0
1680 0 5 -0.5726 32.5292695 23.8910451 6.900045099999998 0 0 0
1681 0 7 0.1481 32.6261182 24.784771699999997 7.2330687 0 0 0
1682 0 8 0.1481 31.8955052 23.885947799999983 6.1779276 0 0 0
1683 0 9 0.1481 32.2166351 23.3184484 7.603472499999997 0 0 0
1690 0 1 0.6894 25.4865 16.991 4.24775 0 0 0
1697 0 3 0.4184 27.57554345 17.1252289 6.40645655 0 0 0
1700 0 5 -0.5726 27.08195489999999 18.4437305 6.900045099999998 0 0 0
1701 0 7 0.1481 26.1882283 18.3468818 7.2330687 0 0 0
1702 0 8 0.1481 27.08705219999998 19.0774948 6.1779276 0 0 0
1703 0 9 0.1481 27.6545516 18.7563649 7.603472499999997 0 0 0
1713 0 3 0.4184 27.57554345 23.39745655 0.1342289 0 0 0
1716 0 5 -0.5726 27.08195489999999 23.8910451 1.4527305 0 0 0
1727 0 1 0.6894 25.4865 21.23875 0 0 0 0
1748 0 7 0.1481 26.1882283 24.2240687 1.3558818 0 0 0
1749 0 8 0.1481 27.08705219999998 23.1689276 2.0864948 0 0 0
1750 0 9 0.1481 27.6545516 24.59447249999999 1.7653648999999998 0 0 0
1802 0 4 -0.191 31.74785341 23.77278774 3.1858125 0 0 0
1803 0 6 0.1536 31.904000699999997 23.089069899999995 3.7957894 0 0 0
1808 0 2 -0.28 32.44822243 24.94822512 3.10561498 0 0 0
1839 0 4 -0.191 27.200212259999986 19.22514659 3.1858125 0 0 0
1840 0 6 0.1536 27.8839301 19.0689993 3.7957894 0 0 0
1842 0 2 -0.28 26.02477488 18.52477757 3.10561498 0 0 0
1867 0 4 -0.191 30.796187499999995 19.22514659 6.781787739999999 0 0 0
1868 0 6 0.1536 30.1862106 19.0689993 6.0980699 0 0 0
1870 0 2 -0.28 30.87638502 18.52477757 7.95722512 0 0 0
1891 0 4 -0.191 31.74785341 20.1768125 6.781787739999999 0 0 0
1892 0 6 0.1536 31.904000699999997 20.7867894 6.0980699 0 0 0
1896 0 2 -0.28 32.44822243 20.09661498 7.95722512 0 0 0
1912 0 4 -0.191 27.200212259999986 20.1768125 2.23414659 0 0 0
1913 0 6 0.1536 27.8839301 20.7867894 2.0779993 0 0 0
1917 0 2 -0.28 26.02477488 20.09661498 1.53377757 0 0 0
1927 0 4 -0.191 30.796187499999995 23.77278774 2.23414659 0 0 0
1928 0 6 0.1536 30.1862106 23.089069899999995 2.0779993 0 0 0
1929 0 2 -0.28 30.87638502 24.94822512 1.53377757 0 0 0
559 0 3 0.4184 0.1342289 27.57554345 6.40645655 0 0 0
562 0 5 -0.5726 1.4527305 27.08195489999999 6.900045099999998 0 0 0
564 0 1 0.6894 0 25.4865 4.24775 0 0 0
581 0 3 0.4184 6.40645655 33.8477711 6.40645655 0 0 0
584 0 5 -0.5726 6.900045099999998 32.5292695 6.900045099999998 0 0 0
624 0 3 0.4184 6.40645655 27.57554345 0.1342289 0 0 0
627 0 5 -0.5726 6.900045099999998 27.08195489999999 1.4527305 0 0 0
629 0 1 0.6894 4.24775 25.4865 0 0 0 0
653 0 7 0.1481 7.7937717 26.74893129999999 1.3558818 0 0 0
654 0 8 0.1481 6.8949478 27.804072399999985 2.0864948 0 0 0
655 0 9 0.1481 6.327448399999999 26.3785275 1.7653648999999998 0 0 0
659 0 7 0.1481 1.3558818 26.74893129999999 7.7937717 0 0 0
660 0 8 0.1481 2.0864948 27.804072399999985 6.8949478 0 0 0
661 0 9 0.1481 1.7653648999999998 26.3785275 6.327448399999999 0 0 0
670 0 7 0.1481 7.2330687 32.6261182 7.7937717 0 0 0
671 0 8 0.1481 6.1779276 31.8955052 6.8949478 0 0 0
672 0 9 0.1481 7.603472499999997 32.2166351 6.327448399999999 0 0 0
711 0 4 -0.191 2.23414659 27.200212259999986 3.1858125 0 0 0
712 0 6 0.1536 2.0779993 27.8839301 3.7957894 0 0 0
717 0 2 -0.28 1.53377757 26.02477488 3.10561498 0 0 0
745 0 4 -0.191 6.781787739999999 31.74785341 3.1858125 0 0 0
746 0 6 0.1536 6.0980699 31.904000699999997 3.7957894 0 0 0
748 0 2 -0.28 7.95722512 32.44822243 3.10561498 0 0 0
750 0 4 -0.191 3.1858125 31.74785341 6.781787739999999 0 0 0
751 0 6 0.1536 3.7957894 31.904000699999997 6.0980699 0 0 0
753 0 2 -0.28 3.10561498 32.44822243 7.95722512 0 0 0
778 0 4 -0.191 2.23414659 30.796187499999995 6.781787739999999 0 0 0
779 0 6 0.1536 2.0779993 30.1862106 6.0980699 0 0 0
783 0 2 -0.28 1.53377757 30.87638502 7.95722512 0 0 0
799 0 4 -0.191 6.781787739999999 30.796187499999995 2.23414659 0 0 0
800 0 6 0.1536 6.0980699 30.1862106 2.0779993 0 0 0
804 0 2 -0.28 7.95722512 30.87638502 1.53377757 0 0 0
826 0 4 -0.191 3.1858125 27.200212259999986 2.23414659 0 0 0
827 0 6 0.1536 3.7957894 27.8839301 2.0779993 0 0 0
828 0 2 -0.28 3.10561498 26.02477488 1.53377757 0 0 0
560 0 4 -0.191 15.27728774 27.72064659 5.3096875 0 0 0
561 0 6 0.1536 14.5935699 27.5644993 4.6997106 0 0 0
563 0 2 -0.28 16.45272512 27.02027757 5.38988502 0 0 0
594 0 4 -0.191 10.72964659 32.26828774 5.3096875 0 0 0
595 0 6 0.1536 10.5734993 31.58456989999999 4.6997106 0 0 0
600 0 2 -0.28 10.02927757 33.44372512 5.38988502 0 0 0
614 0 1 0.6894 12.74325 25.4865 0 0 0 0
631 0 4 -0.191 10.72964659 28.6723125 1.71371226 0 0 0
632 0 6 0.1536 10.5734993 29.2822894 2.3974300999999985 0 0 0
637 0 2 -0.28 10.02927757 28.59211498 0.53827488 0 0 0
638 0 1 0.6894 8.4955 29.73425 0 0 0 0
639 0 4 -0.191 11.6813125 27.72064659 1.71371226 0 0 0
640 0 6 0.1536 12.2912894 27.5644993 2.3974300999999985 0 0 0
641 0 2 -0.28 11.60111498 27.02027757 0.53827488 0 0 0
657 0 4 -0.191 15.27728774 28.6723125 6.26135341 0 0 0
658 0 6 0.1536 14.5935699 29.2822894 6.4175007 0 0 0
662 0 2 -0.28 16.45272512 28.59211498 6.96172243 0 0 0
681 0 4 -0.191 11.6813125 32.26828774 6.26135341 0 0 0
682 0 6 0.1536 12.2912894 31.58456989999999 6.4175007 0 0 0
683 0 2 -0.28 11.60111498 33.44372512 6.96172243 0 0 0
697 0 3 0.4184 14.90195655 25.6207289 2.08904345 0 0 0
700 0 5 -0.5726 15.3955451 26.939230499999997 1.5954549 0 0 0
701 0 7 0.1481 16.2892717 26.8423818 1.2624313 0 0 0
702 0 8 0.1481 15.3904478 27.5729948 2.3175724 0 0 0
703 0 9 0.1481 14.8229484 27.2518649 0.8920275 0 0 0
744 0 3 0.4184 8.6297289 31.89295655 2.08904345 0 0 0
747 0 5 -0.5726 9.948230499999994 32.3865451 1.5954549 0 0 0
754 0 3 0.4184 14.90195655 31.89295655 8.3612711 0 0 0
757 0 5 -0.5726 15.3955451 32.3865451 7.0427695 0 0 0
758 0 7 0.1481 16.2892717 32.7195687 7.1396182 0 0 0
759 0 8 0.1481 15.3904478 31.6644276 6.409005199999999 0 0 0
760 0 9 0.1481 14.8229484 33.0899725 6.7301351 0 0 0
801 0 7 0.1481 9.851381799999993 32.7195687 0.7017283 0 0 0
802 0 8 0.1481 10.5819948 31.6644276 1.6005522 0 0 0
803 0 9 0.1481 10.2608649 33.0899725 2.168051599999999 0 0 0
1663 0 3 0.4184 17.1252289 27.57554345 6.40645655 0 0 0
1666 0 5 -0.5726 18.4437305 27.08195489999999 6.900045099999998 0 0 0
1668 0 1 0.6894 16.991 25.4865 4.24775 0 0 0
1685 0 3 0.4184 23.39745655 33.8477711 6.40645655 0 0 0
1688 0 5 -0.5726 23.8910451 32.5292695 6.900045099999998 0 0 0
1728 0 3 0.4184 23.39745655 27.57554345 0.1342289 0 0 0
1731 0 5 -0.5726 23.8910451 27.08195489999999 1.4527305 0 0 0
1733 0 1 0.6894 21.23875 25.4865 0 0 0 0
1757 0 7 0.1481 24.784771699999997 26.74893129999999 1.3558818 0 0 0
1758 0 8 0.1481 23.885947799999983 27.804072399999985 2.0864948 0 0 0
1759 0 9 0.1481 23.3184484 26.3785275 1.7653648999999998 0 0 0
1763 0 7 0.1481 18.3468818 26.74893129999999 7.7937717 0 0 0
1764 0 8 0.1481 19.0774948 27.804072399999985 6.8949478 0 0 0
1765 0 9 0.1481 18.7563649 26.3785275 6.327448399999999 0 0 0
1774 0 7 0.1481 24.2240687 32.6261182 7.7937717 0 0 0
1775 0 8 0.1481 23.1689276 31.8955052 6.8949478 0 0 0
1776 0 9 0.1481 24.59447249999999 32.2166351 6.327448399999999 0 0 0
1815 0 4 -0.191 19.22514659 27.200212259999986 3.1858125 0 0 0
1816 0 6 0.1536 19.0689993 27.8839301 3.7957894 0 0 0
1821 0 2 -0.28 18.52477757 26.02477488 3.10561498 0 0 0
1849 0 4 -0.191 23.77278774 31.74785341 3.1858125 0 0 0
1850 0 6 0.1536 23.089069899999995 31.904000699999997 3.7957894 0 0 0
1852 0 2 -0.28 24.94822512 32.44822243 3.10561498 0 0 0
1854 0 4 -0.191 20.1768125 31.74785341 6.781787739999999 0 0 0
1855 0 6 0.1536 20.7867894 31.904000699999997 6.0980699 0 0 0
1857 0 2 -0.28 20.09661498 32.44822243 7.95722512 0 0 0
1882 0 4 -0.191 19.22514659 30.796187499999995 6.781787739999999 0 0 0
1883 0 6 0.1536 19.0689993 30.1862106 6.0980699 0 0 0
1887 0 2 -0.28 18.52477757 30.87638502 7.95722512 0 0 0
1903 0 4 -0.191 23.77278774 30.796187499999995 2.23414659 0 0 0
1904 0 6 0.1536 23.089069899999995 30.1862106 2.0779993 0 0 0
1908 0 2 -0.28 24.94822512 30.87638502 1.53377757 0 0 0
1930 0 4 -0.191 20.1768125 27.200212259999986 2.23414659 0 0 0
1931 0 6 0.1536 20.7867894 27.8839301 2.0779993 0 0 0
1932 0 2 -0.28 20.09661498 26.02477488 1.53377757 0 0 0
1664 0 4 -0.191 32.26828774 27.72064659 5.3096875 0 0 0
1665 0 6 0.1536 31.58456989999999 27.5644993 4.6997106 0 0 0
1667 0 2 -0.28 33.44372512 27.02027757 5.38988502 0 0 0
1698 0 4 -0.191 27.72064659 32.26828774 5.3096875 0 0 0
1699 0 6 0.1536 27.5644993 31.58456989999999 4.6997106 0 0 0
1704 0 2 -0.28 27.02027757 33.44372512 5.38988502 0 0 0
1718 0 1 0.6894 29.73425 25.4865 0 0 0 0
1735 0 4 -0.191 27.72064659 28.6723125 1.71371226 0 0 0
1736 0 6 0.1536 27.5644993 29.2822894 2.3974300999999985 0 0 0
1741 0 2 -0.28 27.02027757 28.59211498 0.53827488 0 0 0
1742 0 1 0.6894 25.4865 29.73425 0 0 0 0
1743 0 4 -0.191 28.6723125 27.72064659 1.71371226 0 0 0
1744 0 6 0.1536 29.2822894 27.5644993 2.3974300999999985 0 0 0
1745 0 2 -0.28 28.59211498 27.02027757 0.53827488 0 0 0
1761 0 4 -0.191 32.26828774 28.6723125 6.26135341 0 0 0
1762 0 6 0.1536 31.58456989999999 29.2822894 6.4175007 0 0 0
1766 0 2 -0.28 33.44372512 28.59211498 6.96172243 0 0 0
1785 0 4 -0.191 28.6723125 32.26828774 6.26135341 0 0 0
1786 0 6 0.1536 29.2822894 31.58456989999999 6.4175007 0 0 0
1787 0 2 -0.28 28.59211498 33.44372512 6.96172243 0 0 0
1801 0 3 0.4184 31.89295655 25.6207289 2.08904345 0 0 0
1804 0 5 -0.5726 32.3865451 26.939230499999997 1.5954549 0 0 0
1805 0 7 0.1481 33.2802717 26.8423818 1.2624313 0 0 0
1806 0 8 0.1481 32.3814478 27.5729948 2.3175724 0 0 0
1807 0 9 0.1481 31.8139484 27.2518649 0.8920275 0 0 0
1848 0 3 0.4184 25.6207289 31.89295655 2.08904345 0 0 0
1851 0 5 -0.5726 26.939230499999997 32.3865451 1.5954549 0 0 0
1858 0 3 0.4184 31.89295655 31.89295655 8.3612711 0 0 0
1861 0 5 -0.5726 32.3865451 32.3865451 7.0427695 0 0 0
1862 0 7 0.1481 33.2802717 32.7195687 7.1396182 0 0 0
1863 0 8 0.1481 32.3814478 31.6644276 6.409005199999999 0 0 0
1864 0 9 0.1481 31.8139484 33.0899725 6.7301351 0 0 0
1905 0 7 0.1481 26.8423818 32.7195687 0.7017283 0 0 0
1906 0 8 0.1481 27.5729948 31.6644276 1.6005522 0 0 0
1907 0 9 0.1481 27.2518649 33.0899725 2.168051599999999 0 0 0
1 0 3 0.4184 6.40645655 0.1342289 10.58454345 0 0 0
4 0 5 -0.5726 6.900045099999998 1.4527305 10.0909549 0 0 0
49 0 3 0.4184 0.1342289 6.40645655 10.58454345 0 0 0
52 0 5 -0.5726 1.4527305 6.900045099999998 10.0909549 0 0 0
53 0 7 0.1481 1.3558818 7.7937717 9.7579313 0 0 0
54 0 8 0.1481 2.0864948 6.8949478 10.8130724 0 0 0
55 0 9 0.1481 1.7653648999999998 6.327448399999999 9.3875275 0 0 0
63 0 3 0.4184 6.40645655 6.40645655 16.8567711 0 0 0
66 0 5 -0.5726 6.900045099999998 6.900045099999998 15.5382695 0 0 0
67 0 7 0.1481 7.7937717 7.2330687 15.6351182 0 0 0
68 0 8 0.1481 6.8949478 6.1779276 14.9045052 0 0 0
69 0 9 0.1481 6.327448399999999 7.603472499999997 15.2256351 0 0 0
115 0 1 0.6894 0 4.24775 8.4955 0 0 0
122 0 1 0.6894 4.24775 0 8.4955 0 0 0
138 0 7 0.1481 7.2330687 1.3558818 9.197228299999994 0 0 0
139 0 8 0.1481 6.1779276 2.0864948 10.0960522 0 0 0
140 0 9 0.1481 7.603472499999997 1.7653648999999998 10.663551599999998 0 0 0
154 0 4 -0.191 6.781787739999999 2.23414659 13.805187499999992 0 0 0
155 0 6 0.1536 6.0980699 2.0779993 13.1952106 0 0 0
157 0 2 -0.28 7.95722512 1.53377757 13.88538502 0 0 0
188 0 4 -0.191 2.23414659 6.781787739999999 13.805187499999992 0 0 0
189 0 6 0.1536 2.0779993 6.0980699 13.1952106 0 0 0
191 0 2 -0.28 1.53377757 7.95722512 13.88538502 0 0 0
216 0 4 -0.191 2.23414659 3.1858125 10.20921226 0 0 0
217 0 6 0.1536 2.0779993 3.7957894 10.892930099999997 0 0 0
222 0 2 -0.28 1.53377757 3.10561498 9.03377488 0 0 0
223 0 4 -0.191 3.1858125 2.23414659 10.20921226 0 0 0
224 0 6 0.1536 3.7957894 2.0779993 10.892930099999997 0 0 0
225 0 2 -0.28 3.10561498 1.53377757 9.03377488 0 0 0
241 0 4 -0.191 6.781787739999999 3.1858125 14.75685341 0 0 0
242 0 6 0.1536 6.0980699 3.7957894 14.913000699999992 0 0 0
246 0 2 -0.28 7.95722512 3.10561498 15.457222429999998 0 0 0
262 0 4 -0.191 3.1858125 6.781787739999999 14.75685341 0 0 0
263 0 6 0.1536 3.7957894 6.0980699 14.913000699999992 0 0 0
267 0 2 -0.28 3.10561498 7.95722512 15.457222429999998 0 0 0
6 0 1 0.6894 8.4955 0 12.74325 0 0 0
14 0 4 -0.191 10.72964659 1.71371226 11.6813125 0 0 0
15 0 6 0.1536 10.5734993 2.3974300999999985 12.2912894 0 0 0
20 0 2 -0.28 10.02927757 0.53827488 11.60111498 0 0 0
50 0 4 -0.191 15.27728774 6.26135341 11.6813125 0 0 0
51 0 6 0.1536 14.5935699 6.4175007 12.2912894 0 0 0
56 0 2 -0.28 16.45272512 6.96172243 11.60111498 0 0 0
58 0 4 -0.191 11.6813125 6.26135341 15.27728774 0 0 0
59 0 6 0.1536 12.2912894 6.4175007 14.5935699 0 0 0
61 0 2 -0.28 11.60111498 6.96172243 16.45272512 0 0 0
90 0 4 -0.191 10.72964659 5.3096875 15.27728774 0 0 0
91 0 6 0.1536 10.5734993 4.6997106 14.5935699 0 0 0
95 0 2 -0.28 10.02927757 5.38988502 16.45272512 0 0 0
112 0 4 -0.191 15.27728774 5.3096875 10.72964659 0 0 0
113 0 6 0.1536 14.5935699 4.6997106 10.5734993 0 0 0
114 0 2 -0.28 16.45272512 5.38988502 10.02927757 0 0 0
132 0 1 0.6894 12.74325 0 8.4955 0 0 0
142 0 4 -0.191 11.6813125 1.71371226 10.72964659 0 0 0
143 0 6 0.1536 12.2912894 2.3974300999999985 10.5734993 0 0 0
144 0 2 -0.28 11.60111498 0.53827488 10.02927757 0 0 0
153 0 3 0.4184 8.6297289 2.08904345 14.90195655 0 0 0
156 0 5 -0.5726 9.948230499999994 1.5954549 15.3955451 0 0 0
174 0 3 0.4184 14.90195655 8.3612711 14.90195655 0 0 0
177 0 5 -0.5726 15.3955451 7.0427695 15.3955451 0 0 0
178 0 7 0.1481 16.2892717 7.1396182 15.728568699999993 0 0 0
179 0 8 0.1481 15.3904478 6.409005199999999 14.6734276 0 0 0
180 0 9 0.1481 14.8229484 6.7301351 16.0989725 0 0 0
210 0 3 0.4184 14.90195655 2.08904345 8.6297289 0 0 0
213 0 5 -0.5726 15.3955451 1.5954549 9.948230499999994 0 0 0
237 0 7 0.1481 16.2892717 1.2624313 9.851381799999993 0 0 0
238 0 8 0.1481 15.3904478 2.3175724 10.5819948 0 0 0
239 0 9 0.1481 14.8229484 0.8920275 10.2608649 0 0 0
243 0 7 0.1481 9.851381799999993 1.2624313 16.2892717 0 0 0
244 0 8 0.1481 10.5819948 2.3175724 15.3904478 0 0 0
245 0 9 0.1481 10.2608649 0.8920275 14.8229484 0 0 0
1105 0 3 0.4184 23.39745655 0.1342289 10.58454345 0 0 0
1108 0 5 -0.5726 23.8910451 1.4527305 10.0909549 0 0 0
1153 0 3 0.4184 17.1252289 6.40645655 10.58454345 0 0 0
1156 0 5 -0.5726 18.4437305 6.900045099999998 10.0909549 0 0 0
1157 0 7 0.1481 18.3468818 7.7937717 9.7579313 0 0 0
1158 0 8 0.1481 19.0774948 6.8949478 10.8130724 0 0 0
1159 0 9 0.1481 18.7563649 6.327448399999999 9.3875275 0 0 0
1167 0 3 0.4184 23.39745655 6.40645655 16.8567711 0 0 0
1170 0 5 -0.5726 23.8910451 6.900045099999998 15.5382695 0 0 0
1171 0 7 0.1481 24.784771699999997 7.2330687 15.6351182 0 0 0
1172 0 8 0.1481 23.885947799999983 6.1779276 14.9045052 0 0 0
1173 0 9 0.1481 23.3184484 7.603472499999997 15.2256351 0 0 0
1219 0 1 0.6894 16.991 4.24775 8.4955 0 0 0
1226 0 1 0.6894 21.23875 0 8.4955 0 0 0
1242 0 7 0.1481 24.2240687 1.3558818 9.197228299999994 0 0 0
1243 0 8 0.1481 23.1689276 2.0864948 10.0960522 0 0 0
1244 0 9 0.1481 24.59447249999999 1.7653648999999998 10.663551599999998 0 0 0
1258 0 4 -0.191 23.77278774 2.23414659 13.805187499999992 0 0 0
1259 0 6 0.1536 23.089069899999995 2.0779993 13.1952106 0 0 0
1261 0 2 -0.28 24.94822512 1.53377757 13.88538502 0 0 0
1292 0 4 -0.191 19.22514659 6.781787739999999 13.805187499999992 0 0 0
1293 0 6 0.1536 19.0689993 6.0980699 13.1952106 0 0 0
1295 0 2 -0.28 18.52477757 7.95722512 13.88538502 0 0 0
1320 0 4 -0.191 19.22514659 3.1858125 10.20921226 0 0 0
1321 0 6 0.1536 19.0689993 3.7957894 10.892930099999997 0 0 0
1326 0 2 -0.28 18.52477757 3.10561498 9.03377488 0 0 0
1327 0 4 -0.191 20.1768125 2.23414659 10.20921226 0 0 0
1328 0 6 0.1536 20.7867894 2.0779993 10.892930099999997 0 0 0
1329 0 2 -0.28 20.09661498 1.53377757 9.03377488 0 0 0
1345 0 4 -0.191 23.77278774 3.1858125 14.75685341 0 0 0
1346 0 6 0.1536 23.089069899999995 3.7957894 14.913000699999992 0 0 0
1350 0 2 -0.28 24.94822512 3.10561498 15.457222429999998 0 0 0
1366 0 4 -0.191 20.1768125 6.781787739999999 14.75685341 0 0 0
1367 0 6 0.1536 20.7867894 6.0980699 14.913000699999992 0 0 0
1371 0 2 -0.28 20.09661498 7.95722512 15.457222429999998 0 0 0
1110 0 1 0.6894 25.4865 0 12.74325 0 0 0
1118 0 4 -0.191 27.72064659 1.71371226 11.6813125 0 0 0
1119 0 6 0.1536 27.5644993 2.3974300999999985 12.2912894 0 0 0
1124 0 2 -0.28 27.02027757 0.53827488 11.60111498 0 0 0
1154 0 4 -0.191 32.26828774 6.26135341 11.6813125 0 0 0
1155 0 6 0.1536 31.58456989999999 6.4175007 12.2912894 0 0 0
1160 0 2 -0.28 33.44372512 6.96172243 11.60111498 0 0 0
1162 0 4 -0.191 28.6723125 6.26135341 15.27728774 0 0 0
1163 0 6 0.1536 29.2822894 6.4175007 14.5935699 0 0 0
1165 0 2 -0.28 28.59211498 6.96172243 16.45272512 0 0 0
1194 0 4 -0.191 27.72064659 5.3096875 15.27728774 0 0 0
1195 0 6 0.1536 27.5644993 4.6997106 14.5935699 0 0 0
1199 0 2 -0.28 27.02027757 5.38988502 16.45272512 0 0 0
1216 0 4 -0.191 32.26828774 5.3096875 10.72964659 0 0 0
1217 0 6 0.1536 31.58456989999999 4.6997106 10.5734993 0 0 0
1218 0 2 -0.28 33.44372512 5.38988502 10.02927757 0 0 0
1236 0 1 0.6894 29.73425 0 8.4955 0 0 0
1246 0 4 -0.191 28.6723125 1.71371226 10.72964659 0 0 0
1247 0 6 0.1536 29.2822894 2.3974300999999985 10.5734993 0 0 0
1248 0 2 -0.28 28.59211498 0.53827488 10.02927757 0 0 0
1257 0 3 0.4184 25.6207289 2.08904345 14.90195655 0 0 0
1260 0 5 -0.5726 26.939230499999997 1.5954549 15.3955451 0 0 0
1278 0 3 0.4184 31.89295655 8.3612711 14.90195655 0 0 0
1281 0 5 -0.5726 32.3865451 7.0427695 15.3955451 0 0 0
1282 0 7 0.1481 33.2802717 7.1396182 15.728568699999993 0 0 0
1283 0 8 0.1481 32.3814478 6.409005199999999 14.6734276 0 0 0
1284 0 9 0.1481 31.8139484 6.7301351 16.0989725 0 0 0
1314 0 3 0.4184 31.89295655 2.08904345 8.6297289 0 0 0
1317 0 5 -0.5726 32.3865451 1.5954549 9.948230499999994 0 0 0
1341 0 7 0.1481 33.2802717 1.2624313 9.851381799999993 0 0 0
1342 0 8 0.1481 32.3814478 2.3175724 10.5819948 0 0 0
1343 0 9 0.1481 31.8139484 0.8920275 10.2608649 0 0 0
1347 0 7 0.1481 26.8423818 1.2624313 16.2892717 0 0 0
1348 0 8 0.1481 27.5729948 2.3175724 15.3904478 0 0 0
1349 0 9 0.1481 27.2518649 0.8920275 14.8229484 0 0 0
2 0 4 -0.191 6.26135341 15.27728774 11.6813125 0 0 0
3 0 6 0.1536 6.4175007 14.5935699 12.2912894 0 0 0
5 0 2 -0.28 6.96172243 16.45272512 11.60111498 0 0 0
36 0 4 -0.191 1.71371226 10.72964659 11.6813125 0 0 0
37 0 6 0.1536 2.3974300999999985 10.5734993 12.2912894 0 0 0
39 0 2 -0.28 0.53827488 10.02927757 11.60111498 0 0 0
40 0 1 0.6894 0 8.4955 12.74325 0 0 0
73 0 4 -0.191 5.3096875 10.72964659 15.27728774 0 0 0
74 0 6 0.1536 4.6997106 10.5734993 14.5935699 0 0 0
76 0 2 -0.28 5.38988502 10.02927757 16.45272512 0 0 0
99 0 4 -0.191 6.26135341 11.6813125 15.27728774 0 0 0
100 0 6 0.1536 6.4175007 12.2912894 14.5935699 0 0 0
104 0 2 -0.28 6.96172243 11.60111498 16.45272512 0 0 0
111 0 1 0.6894 0 12.74325 8.4955 0 0 0
123 0 4 -0.191 1.71371226 11.6813125 10.72964659 0 0 0
124 0 6 0.1536 2.3974300999999985 12.2912894 10.5734993 0 0 0
128 0 2 -0.28 0.53827488 11.60111498 10.02927757 0 0 0
136 0 4 -0.191 5.3096875 15.27728774 10.72964659 0 0 0
137 0 6 0.1536 4.6997106 14.5935699 10.5734993 0 0 0
141 0 2 -0.28 5.38988502 16.45272512 10.02927757 0 0 0
166 0 3 0.4184 8.3612711 14.90195655 14.90195655 0 0 0
169 0 5 -0.5726 7.0427695 15.3955451 15.3955451 0 0 0
170 0 7 0.1481 7.1396182 16.2892717 15.728568699999993 0 0 0
171 0 8 0.1481 6.409005199999999 15.3904478 14.6734276 0 0 0
172 0 9 0.1481 6.7301351 14.8229484 16.0989725 0 0 0
187 0 3 0.4184 2.08904345 8.6297289 14.90195655 0 0 0
190 0 5 -0.5726 1.5954549 9.948230499999994 15.3955451 0 0 0
197 0 3 0.4184 2.08904345 14.90195655 8.6297289 0 0 0
200 0 5 -0.5726 1.5954549 15.3955451 9.948230499999994 0 0 0
228 0 7 0.1481 0.7017283 15.728568699999993 9.851381799999993 0 0 0
229 0 8 0.1481 1.6005522 14.6734276 10.5819948 0 0 0
230 0 9 0.1481 2.168051599999999 16.0989725 10.2608649 0 0 0
264 0 7 0.1481 1.2624313 9.851381799999993 16.2892717 0 0 0
265 0 8 0.1481 2.3175724 10.5819948 15.3904478 0 0 0
266 0 9 0.1481 0.8920275 10.2608649 14.8229484 0 0 0
13 0 3 0.4184 10.58454345 16.8567711 10.58454345 0 0 0
16 0 5 -0.5726 10.0909549 15.5382695 10.0909549 0 0 0
17 0 7 0.1481 9.197228299999994 15.6351182 9.7579313 0 0 0
18 0 8 0.1481 10.0960522 14.9045052 10.8130724 0 0 0
19 0 9 0.1481 10.663551599999998 15.2256351 9.3875275 0 0 0
35 0 3 0.4184 16.8567711 10.58454345 10.58454345 0 0 0
38 0 5 -0.5726 15.5382695 10.0909549 10.0909549 0 0 0
78 0 3 0.4184 10.58454345 10.58454345 16.8567711 0 0 0
81 0 5 -0.5726 10.0909549 10.0909549 15.5382695 0 0 0
82 0 7 0.1481 9.197228299999994 9.7579313 15.6351182 0 0 0
83 0 8 0.1481 10.0960522 10.8130724 14.9045052 0 0 0
84 0 9 0.1481 10.663551599999998 9.3875275 15.2256351 0 0 0
125 0 7 0.1481 15.6351182 9.7579313 9.197228299999994 0 0 0
126 0 8 0.1481 14.9045052 10.8130724 10.0960522 0 0 0
127 0 9 0.1481 15.2256351 9.3875275 10.663551599999998 0 0 0
167 0 4 -0.191 10.20921226 14.75685341 13.805187499999992 0 0 0
168 0 6 0.1536 10.892930099999997 14.913000699999992 13.1952106 0 0 0
173 0 2 -0.28 9.03377488 15.457222429999998 13.88538502 0 0 0
175 0 4 -0.191 14.75685341 10.20921226 13.805187499999992 0 0 0
176 0 6 0.1536 14.913000699999992 10.892930099999997 13.1952106 0 0 0
181 0 2 -0.28 15.457222429999998 9.03377488 13.88538502 0 0 0
203 0 4 -0.191 14.75685341 13.805187499999992 10.20921226 0 0 0
204 0 6 0.1536 14.913000699999992 13.1952106 10.892930099999997 0 0 0
209 0 2 -0.28 15.457222429999998 13.88538502 9.03377488 0 0 0
232 0 4 -0.191 13.805187499999992 14.75685341 10.20921226 0 0 0
233 0 6 0.1536 13.1952106 14.913000699999992 10.892930099999997 0 0 0
234 0 2 -0.28 13.88538502 15.457222429999998 9.03377488 0 0 0
253 0 4 -0.191 13.805187499999992 10.20921226 14.75685341 0 0 0
254 0 6 0.1536 13.1952106 10.892930099999997 14.913000699999992 0 0 0
255 0 2 -0.28 13.88538502 9.03377488 15.457222429999998 0 0 0
268 0 4 -0.191 10.20921226 13.805187499999992 14.75685341 0 0 0
269 0 6 0.1536 10.892930099999997 13.1952106 14.913000699999992 0 0 0
270 0 2 -0.28 9.03377488 13.88538502 15.457222429999998 0 0 0
1106 0 4 -0.191 23.25235341 15.27728774 11.6813125 0 0 0
1107 0 6 0.1536 23.4085007 14.5935699 12.2912894 0 0 0
1109 0 2 -0.28 23.95272243 16.45272512 11.60111498 0 0 0
1140 0 4 -0.191 18.70471225999999 10.72964659 11.6813125 0 0 0
1141 0 6 0.1536 19.3884301 10.5734993 12.2912894 0 0 0
1143 0 2 -0.28 17.52927488 10.02927757 11.60111498 0 0 0
1144 0 1 0.6894 16.991 8.4955 12.74325 0 0 0
1177 0 4 -0.191 22.3006875 10.72964659 15.27728774 0 0 0
1178 0 6 0.1536 21.6907106 10.5734993 14.5935699 0 0 0
1180 0 2 -0.28 22.38088502 10.02927757 16.45272512 0 0 0
1203 0 4 -0.191 23.25235341 11.6813125 15.27728774 0 0 0
1204 0 6 0.1536 23.4085007 12.2912894 14.5935699 0 0 0
1208 0 2 -0.28 23.95272243 11.60111498 16.45272512 0 0 0
1215 0 1 0.6894 16.991 12.74325 8.4955 0 0 0
1227 0 4 -0.191 18.70471225999999 11.6813125 10.72964659 0 0 0
1228 0 6 0.1536 19.3884301 12.2912894 10.5734993 0 0 0
1232 0 2 -0.28 17.52927488 11.60111498 10.02927757 0 0 0
1240 0 4 -0.191 22.3006875 15.27728774 10.72964659 0 0 0
1241 0 6 0.1536 21.6907106 14.5935699 10.5734993 0 0 0
1245 0 2 -0.28 22.38088502 16.45272512 10.02927757 0 0 0
1270 0 3 0.4184 25.3522711 14.90195655 14.90195655 0 0 0
1273 0 5 -0.5726 24.0337695 15.3955451 15.3955451 0 0 0
1274 0 7 0.1481 24.1306182 16.2892717 15.728568699999993 0 0 0
1275 0 8 0.1481 23.4000052 15.3904478 14.6734276 0 0 0
1276 0 9 0.1481 23.7211351 14.8229484 16.0989725 0 0 0
1291 0 3 0.4184 19.08004345 8.6297289 14.90195655 0 0 0
1294 0 5 -0.5726 18.586454899999993 9.948230499999994 15.3955451 0 0 0
1301 0 3 0.4184 19.08004345 14.90195655 8.6297289 0 0 0
1304 0 5 -0.5726 18.586454899999993 15.3955451 9.948230499999994 0 0 0
1332 0 7 0.1481 17.6927283 15.728568699999993 9.851381799999993 0 0 0
1333 0 8 0.1481 18.591552199999988 14.6734276 10.5819948 0 0 0
1334 0 9 0.1481 19.1590516 16.0989725 10.2608649 0 0 0
1368 0 7 0.1481 18.2534313 9.851381799999993 16.2892717 0 0 0
1369 0 8 0.1481 19.30857239999999 10.5819948 15.3904478 0 0 0
1370 0 9 0.1481 17.8830275 10.2608649 14.8229484 0 0 0
1117 0 3 0.4184 27.57554345 16.8567711 10.58454345 0 0 0
1120 0 5 -0.5726 27.08195489999999 15.5382695 10.0909549 0 0 0
1121 0 7 0.1481 26.1882283 15.6351182 9.7579313 0 0 0
1122 0 8 0.1481 27.08705219999998 14.9045052 10.8130724 0 0 0
1123 0 9 0.1481 27.6545516 15.2256351 9.3875275 0 0 0
1139 0 3 0.4184 33.8477711 10.58454345 10.58454345 0 0 0
1142 0 5 -0.5726 32.5292695 10.0909549 10.0909549 0 0 0
1182 0 3 0.4184 27.57554345 10.58454345 16.8567711 0 0 0
1185 0 5 -0.5726 27.08195489999999 10.0909549 15.5382695 0 0 0
1186 0 7 0.1481 26.1882283 9.7579313 15.6351182 0 0 0
1187 0 8 0.1481 27.08705219999998 10.8130724 14.9045052 0 0 0
1188 0 9 0.1481 27.6545516 9.3875275 15.2256351 0 0 0
1229 0 7 0.1481 32.6261182 9.7579313 9.197228299999994 0 0 0
1230 0 8 0.1481 31.8955052 10.8130724 10.0960522 0 0 0
1231 0 9 0.1481 32.2166351 9.3875275 10.663551599999998 0 0 0
1271 0 4 -0.191 27.200212259999986 14.75685341 13.805187499999992 0 0 0
1272 0 6 0.1536 27.8839301 14.913000699999992 13.1952106 0 0 0
1277 0 2 -0.28 26.02477488 15.457222429999998 13.88538502 0 0 0
1279 0 4 -0.191 31.74785341 10.20921226 13.805187499999992 0 0 0
1280 0 6 0.1536 31.904000699999997 10.892930099999997 13.1952106 0 0 0
1285 0 2 -0.28 32.44822243 9.03377488 13.88538502 0 0 0
1307 0 4 -0.191 31.74785341 13.805187499999992 10.20921226 0 0 0
1308 0 6 0.1536 31.904000699999997 13.1952106 10.892930099999997 0 0 0
1313 0 2 -0.28 32.44822243 13.88538502 9.03377488 0 0 0
1336 0 4 -0.191 30.796187499999995 14.75685341 10.20921226 0 0 0
1337 0 6 0.1536 30.1862106 14.913000699999992 10.892930099999997 0 0 0
1338 0 2 -0.28 30.87638502 15.457222429999998 9.03377488 0 0 0
1357 0 4 -0.191 30.796187499999995 10.20921226 14.75685341 0 0 0
1358 0 6 0.1536 30.1862106 10.892930099999997 14.913000699999992 0 0 0
1359 0 2 -0.28 30.87638502 9.03377488 15.457222429999998 0 0 0
1372 0 4 -0.191 27.200212259999986 13.805187499999992 14.75685341 0 0 0
1373 0 6 0.1536 27.8839301 13.1952106 14.913000699999992 0 0 0
1374 0 2 -0.28 26.02477488 13.88538502 15.457222429999998 0 0 0
553 0 3 0.4184 6.40645655 17.1252289 10.58454345 0 0 0
556 0 5 -0.5726 6.900045099999998 18.4437305 10.0909549 0 0 0
601 0 3 0.4184 0.1342289 23.39745655 10.58454345 0 0 0
604 0 5 -0.5726 1.4527305 23.8910451 10.0909549 0 0 0
605 0 7 0.1481 1.3558818 24.784771699999997 9.7579313 0 0 0
606 0 8 0.1481 2.0864948 23.885947799999983 10.8130724 0 0 0
607 0 9 0.1481 1.7653648999999998 23.3184484 9.3875275 0 0 0
615 0 3 0.4184 6.40645655 23.39745655 16.8567711 0 0 0
618 0 5 -0.5726 6.900045099999998 23.8910451 15.5382695 0 0 0
619 0 7 0.1481 7.7937717 24.2240687 15.6351182 0 0 0
620 0 8 0.1481 6.8949478 23.1689276 14.9045052 0 0 0
621 0 9 0.1481 6.327448399999999 24.59447249999999 15.2256351 0 0 0
667 0 1 0.6894 0 21.23875 8.4955 0 0 0
674 0 1 0.6894 4.24775 16.991 8.4955 0 0 0
690 0 7 0.1481 7.2330687 18.3468818 9.197228299999994 0 0 0
691 0 8 0.1481 6.1779276 19.0774948 10.0960522 0 0 0
692 0 9 0.1481 7.603472499999997 18.7563649 10.663551599999998 0 0 0
706 0 4 -0.191 6.781787739999999 19.22514659 13.805187499999992 0 0 0
707 0 6 0.1536 6.0980699 19.0689993 13.1952106 0 0 0
709 0 2 -0.28 7.95722512 18.52477757 13.88538502 0 0 0
740 0 4 -0.191 2.23414659 23.77278774 13.805187499999992 0 0 0
741 0 6 0.1536 2.0779993 23.089069899999995 13.1952106 0 0 0
743 0 2 -0.28 1.53377757 24.94822512 13.88538502 0 0 0
768 0 4 -0.191 2.23414659 20.1768125 10.20921226 0 0 0
769 0 6 0.1536 2.0779993 20.7867894 10.892930099999997 0 0 0
774 0 2 -0.28 1.53377757 20.09661498 9.03377488 0 0 0
775 0 4 -0.191 3.1858125 19.22514659 10.20921226 0 0 0
776 0 6 0.1536 3.7957894 19.0689993 10.892930099999997 0 0 0
777 0 2 -0.28 3.10561498 18.52477757 9.03377488 0 0 0
793 0 4 -0.191 6.781787739999999 20.1768125 14.75685341 0 0 0
794 0 6 0.1536 6.0980699 20.7867894 14.913000699999992 0 0 0
798 0 2 -0.28 7.95722512 20.09661498 15.457222429999998 0 0 0
814 0 4 -0.191 3.1858125 23.77278774 14.75685341 0 0 0
815 0 6 0.1536 3.7957894 23.089069899999995 14.913000699999992 0 0 0
819 0 2 -0.28 3.10561498 24.94822512 15.457222429999998 0 0 0
558 0 1 0.6894 8.4955 16.991 12.74325 0 0 0
566 0 4 -0.191 10.72964659 18.70471225999999 11.6813125 0 0 0
567 0 6 0.1536 10.5734993 19.3884301 12.2912894 0 0 0
572 0 2 -0.28 10.02927757 17.52927488 11.60111498 0 0 0
602 0 4 -0.191 15.27728774 23.25235341 11.6813125 0 0 0
603 0 6 0.1536 14.5935699 23.4085007 12.2912894 0 0 0
608 0 2 -0.28 16.45272512 23.95272243 11.60111498 0 0 0
610 0 4 -0.191 11.6813125 23.25235341 15.27728774 0 0 0
611 0 6 0.1536 12.2912894 23.4085007 14.5935699 0 0 0
613 0 2 -0.28 11.60111498 23.95272243 16.45272512 0 0 0
642 0 4 -0.191 10.72964659 22.3006875 15.27728774 0 0 0
643 0 6 0.1536 10.5734993 21.6907106 14.5935699 0 0 0
647 0 2 -0.28 10.02927757 22.38088502 16.45272512 0 0 0
664 0 4 -0.191 15.27728774 22.3006875 10.72964659 0 0 0
665 0 6 0.1536 14.5935699 21.6907106 10.5734993 0 0 0
666 0 2 -0.28 16.45272512 22.38088502 10.02927757 0 0 0
684 0 1 0.6894 12.74325 16.991 8.4955 0 0 0
694 0 4 -0.191 11.6813125 18.70471225999999 10.72964659 0 0 0
695 0 6 0.1536 12.2912894 19.3884301 10.5734993 0 0 0
696 0 2 -0.28 11.60111498 17.52927488 10.02927757 0 0 0
705 0 3 0.4184 8.6297289 19.08004345 14.90195655 0 0 0
708 0 5 -0.5726 9.948230499999994 18.586454899999993 15.3955451 0 0 0
726 0 3 0.4184 14.90195655 25.3522711 14.90195655 0 0 0
729 0 5 -0.5726 15.3955451 24.0337695 15.3955451 0 0 0
730 0 7 0.1481 16.2892717 24.1306182 15.728568699999993 0 0 0
731 0 8 0.1481 15.3904478 23.4000052 14.6734276 0 0 0
732 0 9 0.1481 14.8229484 23.7211351 16.0989725 0 0 0
762 0 3 0.4184 14.90195655 19.08004345 8.6297289 0 0 0
765 0 5 -0.5726 15.3955451 18.586454899999993 9.948230499999994 0 0 0
789 0 7 0.1481 16.2892717 18.2534313 9.851381799999993 0 0 0
790 0 8 0.1481 15.3904478 19.30857239999999 10.5819948 0 0 0
791 0 9 0.1481 14.8229484 17.8830275 10.2608649 0 0 0
795 0 7 0.1481 9.851381799999993 18.2534313 16.2892717 0 0 0
796 0 8 0.1481 10.5819948 19.30857239999999 15.3904478 0 0 0
797 0 9 0.1481 10.2608649 17.8830275 14.8229484 0 0 0
1657 0 3 0.4184 23.39745655 17.1252289 10.58454345 0 0 0
1660 0 5 -0.5726 23.8910451 18.4437305 10.0909549 0 0 0
1705 0 3 0.4184 17.1252289 23.39745655 10.58454345 0 0 0
1708 0 5 -0.5726 18.4437305 23.8910451 10.0909549 0 0 0
1709 0 7 0.1481 18.3468818 24.784771699999997 9.7579313 0 0 0
1710 0 8 0.1481 19.0774948 23.885947799999983 10.8130724 0 0 0
1711 0 9 0.1481 18.7563649 23.3184484 9.3875275 0 0 0
1719 0 3 0.4184 23.39745655 23.39745655 16.8567711 0 0 0
1722 0 5 -0.5726 23.8910451 23.8910451 15.5382695 0 0 0
1723 0 7 0.1481 24.784771699999997 24.2240687 15.6351182 0 0 0
1724 0 8 0.1481 23.885947799999983 23.1689276 14.9045052 0 0 0
1725 0 9 0.1481 23.3184484 24.59447249999999 15.2256351 0 0 0
1771 0 1 0.6894 16.991 21.23875 8.4955 0 0 0
1778 0 1 0.6894 21.23875 16.991 8.4955 0 0 0
1794 0 7 0.1481 24.2240687 18.3468818 9.197228299999994 0 0 0
1795 0 8 0.1481 23.1689276 19.0774948 10.0960522 0 0 0
1796 0 9 0.1481 24.59447249999999 18.7563649 10.663551599999998 0 0 0
1810 0 4 -0.191 23.77278774 19.22514659 13.805187499999992 0 0 0
1811 0 6 0.1536 23.089069899999995 19.0689993 13.1952106 0 0 0
1813 0 2 -0.28 24.94822512 18.52477757 13.88538502 0 0 0
1844 0 4 -0.191 19.22514659 23.77278774 13.805187499999992 0 0 0
1845 0 6 0.1536 19.0689993 23.089069899999995 13.1952106 0 0 0
1847 0 2 -0.28 18.52477757 24.94822512 13.88538502 0 0 0
1872 0 4 -0.191 19.22514659 20.1768125 10.20921226 0 0 0
1873 0 6 0.1536 19.0689993 20.7867894 10.892930099999997 0 0 0
1878 0 2 -0.28 18.52477757 20.09661498 9.03377488 0 0 0
1879 0 4 -0.191 20.1768125 19.22514659 10.20921226 0 0 0
1880 0 6 0.1536 20.7867894 19.0689993 10.892930099999997 0 0 0
1881 0 2 -0.28 20.09661498 18.52477757 9.03377488 0 0 0
1897 0 4 -0.191 23.77278774 20.1768125 14.75685341 0 0 0
1898 0 6 0.1536 23.089069899999995 20.7867894 14.913000699999992 0 0 0
1902 0 2 -0.28 24.94822512 20.09661498 15.457222429999998 0 0 0
1918 0 4 -0.191 20.1768125 23.77278774 14.75685341 0 0 0
1919 0 6 0.1536 20.7867894 23.089069899999995 14.913000699999992 0 0 0
1923 0 2 -0.28 20.09661498 24.94822512 15.457222429999998 0 0 0
1662 0 1 0.6894 25.4865 16.991 12.74325 0 0 0
1670 0 4 -0.191 27.72064659 18.70471225999999 11.6813125 0 0 0
1671 0 6 0.1536 27.5644993 19.3884301 12.2912894 0 0 0
1676 0 2 -0.28 27.02027757 17.52927488 11.60111498 0 0 0
1706 0 4 -0.191 32.26828774 23.25235341 11.6813125 0 0 0
1707 0 6 0.1536 31.58456989999999 23.4085007 12.2912894 0 0 0
1712 0 2 -0.28 33.44372512 23.95272243 11.60111498 0 0 0
1714 0 4 -0.191 28.6723125 23.25235341 15.27728774 0 0 0
1715 0 6 0.1536 29.2822894 23.4085007 14.5935699 0 0 0
1717 0 2 -0.28 28.59211498 23.95272243 16.45272512 0 0 0
1746 0 4 -0.191 27.72064659 22.3006875 15.27728774 0 0 0
1747 0 6 0.1536 27.5644993 21.6907106 14.5935699 0 0 0
1751 0 2 -0.28 27.02027757 22.38088502 16.45272512 0 0 0
1768 0 4 -0.191 32.26828774 22.3006875 10.72964659 0 0 0
1769 0 6 0.1536 31.58456989999999 21.6907106 10.5734993 0 0 0
1770 0 2 -0.28 33.44372512 22.38088502 10.02927757 0 0 0
1788 0 1 0.6894 29.73425 16.991 8.4955 0 0 0
1798 0 4 -0.191 28.6723125 18.70471225999999 10.72964659 0 0 0
1799 0 6 0.1536 29.2822894 19.3884301 10.5734993 0 0 0
1800 0 2 -0.28 28.59211498 17.52927488 10.02927757 0 0 0
1809 0 3 0.4184 25.6207289 19.08004345 14.90195655 0 0 0
1812 0 5 -0.5726 26.939230499999997 18.586454899999993 15.3955451 0 0 0
1830 0 3 0.4184 31.89295655 25.3522711 14.90195655 0 0 0
1833 0 5 -0.5726 32.3865451 24.0337695 15.3955451 0 0 0
1834 0 7 0.1481 33.2802717 24.1306182 15.728568699999993 0 0 0
1835 0 8 0.1481 32.3814478 23.4000052 14.6734276 0 0 0
1836 0 9 0.1481 31.8139484 23.7211351 16.0989725 0 0 0
1866 0 3 0.4184 31.89295655 19.08004345 8.6297289 0 0 0
1869 0 5 -0.5726 32.3865451 18.586454899999993 9.948230499999994 0 0 0
1893 0 7 0.1481 33.2802717 18.2534313 9.851381799999993 0 0 0
1894 0 8 0.1481 32.3814478 19.30857239999999 10.5819948 0 0 0
1895 0 9 0.1481 31.8139484 17.8830275 10.2608649 0 0 0
1899 0 7 0.1481 26.8423818 18.2534313 16.2892717 0 0 0
1900 0 8 0.1481 27.5729948 19.30857239999999 15.3904478 0 0 0
1901 0 9 0.1481 27.2518649 17.8830275 14.8229484 0 0 0
554 0 4 -0.191 6.26135341 32.26828774 11.6813125 0 0 0
555 0 6 0.1536 6.4175007 31.58456989999999 12.2912894 0 0 0
557 0 2 -0.28 6.96172243 33.44372512 11.60111498 0 0 0
588 0 4 -0.191 1.71371226 27.72064659 11.6813125 0 0 0
589 0 6 0.1536 2.3974300999999985 27.5644993 12.2912894 0 0 0
591 0 2 -0.28 0.53827488 27.02027757 11.60111498 0 0 0
592 0 1 0.6894 0 25.4865 12.74325 0 0 0
625 0 4 -0.191 5.3096875 27.72064659 15.27728774 0 0 0
626 0 6 0.1536 4.6997106 27.5644993 14.5935699 0 0 0
628 0 2 -0.28 5.38988502 27.02027757 16.45272512 0 0 0
651 0 4 -0.191 6.26135341 28.6723125 15.27728774 0 0 0
652 0 6 0.1536 6.4175007 29.2822894 14.5935699 0 0 0
656 0 2 -0.28 6.96172243 28.59211498 16.45272512 0 0 0
663 0 1 0.6894 0 29.73425 8.4955 0 0 0
675 0 4 -0.191 1.71371226 28.6723125 10.72964659 0 0 0
676 0 6 0.1536 2.3974300999999985 29.2822894 10.5734993 0 0 0
680 0 2 -0.28 0.53827488 28.59211498 10.02927757 0 0 0
688 0 4 -0.191 5.3096875 32.26828774 10.72964659 0 0 0
689 0 6 0.1536 4.6997106 31.58456989999999 10.5734993 0 0 0
693 0 2 -0.28 5.38988502 33.44372512 10.02927757 0 0 0
718 0 3 0.4184 8.3612711 31.89295655 14.90195655 0 0 0
721 0 5 -0.5726 7.0427695 32.3865451 15.3955451 0 0 0
722 0 7 0.1481 7.1396182 33.2802717 15.728568699999993 0 0 0
723 0 8 0.1481 6.409005199999999 32.3814478 14.6734276 0 0 0
724 0 9 0.1481 6.7301351 31.8139484 16.0989725 0 0 0
739 0 3 0.4184 2.08904345 25.6207289 14.90195655 0 0 0
742 0 5 -0.5726 1.5954549 26.939230499999997 15.3955451 0 0 0
749 0 3 0.4184 2.08904345 31.89295655 8.6297289 0 0 0
752 0 5 -0.5726 1.5954549 32.3865451 9.948230499999994 0 0 0
780 0 7 0.1481 0.7017283 32.7195687 9.851381799999993 0 0 0
781 0 8 0.1481 1.6005522 31.6644276 10.5819948 0 0 0
782 0 9 0.1481 2.168051599999999 33.0899725 10.2608649 0 0 0
816 0 7 0.1481 1.2624313 26.8423818 16.2892717 0 0 0
817 0 8 0.1481 2.3175724 27.5729948 15.3904478 0 0 0
818 0 9 0.1481 0.8920275 27.2518649 14.8229484 0 0 0
565 0 3 0.4184 10.58454345 33.8477711 10.58454345 0 0 0
568 0 5 -0.5726 10.0909549 32.5292695 10.0909549 0 0 0
569 0 7 0.1481 9.197228299999994 32.6261182 9.7579313 0 0 0
570 0 8 0.1481 10.0960522 31.8955052 10.8130724 0 0 0
571 0 9 0.1481 10.663551599999998 32.2166351 9.3875275 0 0 0
587 0 3 0.4184 16.8567711 27.57554345 10.58454345 0 0 0
590 0 5 -0.5726 15.5382695 27.08195489999999 10.0909549 0 0 0
630 0 3 0.4184 10.58454345 27.57554345 16.8567711 0 0 0
633 0 5 -0.5726 10.0909549 27.08195489999999 15.5382695 0 0 0
634 0 7 0.1481 9.197228299999994 26.74893129999999 15.6351182 0 0 0
635 0 8 0.1481 10.0960522 27.804072399999985 14.9045052 0 0 0
636 0 9 0.1481 10.663551599999998 26.3785275 15.2256351 0 0 0
677 0 7 0.1481 15.6351182 26.74893129999999 9.197228299999994 0 0 0
678 0 8 0.1481 14.9045052 27.804072399999985 10.0960522 0 0 0
679 0 9 0.1481 15.2256351 26.3785275 10.663551599999998 0 0 0
719 0 4 -0.191 10.20921226 31.74785341 13.805187499999992 0 0 0
720 0 6 0.1536 10.892930099999997 31.904000699999997 13.1952106 0 0 0
725 0 2 -0.28 9.03377488 32.44822243 13.88538502 0 0 0
727 0 4 -0.191 14.75685341 27.200212259999986 13.805187499999992 0 0 0
728 0 6 0.1536 14.913000699999992 27.8839301 13.1952106 0 0 0
733 0 2 -0.28 15.457222429999998 26.02477488 13.88538502 0 0 0
755 0 4 -0.191 14.75685341 30.796187499999995 10.20921226 0 0 0
756 0 6 0.1536 14.913000699999992 30.1862106 10.892930099999997 0 0 0
761 0 2 -0.28 15.457222429999998 30.87638502 9.03377488 0 0 0
784 0 4 -0.191 13.805187499999992 31.74785341 10.20921226 0 0 0
785 0 6 0.1536 13.1952106 31.904000699999997 10.892930099999997 0 0 0
786 0 2 -0.28 13.88538502 32.44822243 9.03377488 0 0 0
805 0 4 -0.191 13.805187499999992 27.200212259999986 14.75685341 0 0 0
806 0 6 0.1536 13.1952106 27.8839301 14.913000699999992 0 0 0
807 0 2 -0.28 13.88538502 26.02477488 15.457222429999998 0 0 0
820 0 4 -0.191 10.20921226 30.796187499999995 14.75685341 0 0 0
821 0 6 0.1536 10.892930099999997 30.1862106 14.913000699999992 0 0 0
822 0 2 -0.28 9.03377488 30.87638502 15.457222429999998 0 0 0
1658 0 4 -0.191 23.25235341 32.26828774 11.6813125 0 0 0
1659 0 6 0.1536 23.4085007 31.58456989999999 12.2912894 0 0 0
1661 0 2 -0.28 23.95272243 33.44372512 11.60111498 0 0 0
1692 0 4 -0.191 18.70471225999999 27.72064659 11.6813125 0 0 0
1693 0 6 0.1536 19.3884301 27.5644993 12.2912894 0 0 0
1695 0 2 -0.28 17.52927488 27.02027757 11.60111498 0 0 0
1696 0 1 0.6894 16.991 25.4865 12.74325 0 0 0
1729 0 4 -0.191 22.3006875 27.72064659 15.27728774 0 0 0
1730 0 6 0.1536 21.6907106 27.5644993 14.5935699 0 0 0
1732 0 2 -0.28 22.38088502 27.02027757 16.45272512 0 0 0
1755 0 4 -0.191 23.25235341 28.6723125 15.27728774 0 0 0
1756 0 6 0.1536 23.4085007 29.2822894 14.5935699 0 0 0
1760 0 2 -0.28 23.95272243 28.59211498 16.45272512 0 0 0
1767 0 1 0.6894 16.991 29.73425 8.4955 0 0 0
1779 0 4 -0.191 18.70471225999999 28.6723125 10.72964659 0 0 0
1780 0 6 0.1536 19.3884301 29.2822894 10.5734993 0 0 0
1784 0 2 -0.28 17.52927488 28.59211498 10.02927757 0 0 0
1792 0 4 -0.191 22.3006875 32.26828774 10.72964659 0 0 0
1793 0 6 0.1536 21.6907106 31.58456989999999 10.5734993 0 0 0
1797 0 2 -0.28 22.38088502 33.44372512 10.02927757 0 0 0
1822 0 3 0.4184 25.3522711 31.89295655 14.90195655 0 0 0
1825 0 5 -0.5726 24.0337695 32.3865451 15.3955451 0 0 0
1826 0 7 0.1481 24.1306182 33.2802717 15.728568699999993 0 0 0
1827 0 8 0.1481 23.4000052 32.3814478 14.6734276 0 0 0
1828 0 9 0.1481 23.7211351 31.8139484 16.0989725 0 0 0
1843 0 3 0.4184 19.08004345 25.6207289 14.90195655 0 0 0
1846 0 5 -0.5726 18.586454899999993 26.939230499999997 15.3955451 0 0 0
1853 0 3 0.4184 19.08004345 31.89295655 8.6297289 0 0 0
1856 0 5 -0.5726 18.586454899999993 32.3865451 9.948230499999994 0 0 0
1884 0 7 0.1481 17.6927283 32.7195687 9.851381799999993 0 0 0
1885 0 8 0.1481 18.591552199999988 31.6644276 10.5819948 0 0 0
1886 0 9 0.1481 19.1590516 33.0899725 10.2608649 0 0 0
1920 0 7 0.1481 18.2534313 26.8423818 16.2892717 0 0 0
1921 0 8 0.1481 19.30857239999999 27.5729948 15.3904478 0 0 0
1922 0 9 0.1481 17.8830275 27.2518649 14.8229484 0 0 0
1669 0 3 0.4184 27.57554345 33.8477711 10.58454345 0 0 0
1672 0 5 -0.5726 27.08195489999999 32.5292695 10.0909549 0 0 0
1673 0 7 0.1481 26.1882283 32.6261182 9.7579313 0 0 0
1674 0 8 0.1481 27.08705219999998 31.8955052 10.8130724 0 0 0
1675 0 9 0.1481 27.6545516 32.2166351 9.3875275 0 0 0
1691 0 3 0.4184 33.8477711 27.57554345 10.58454345 0 0 0
1694 0 5 -0.5726 32.5292695 27.08195489999999 10.0909549 0 0 0
1734 0 3 0.4184 27.57554345 27.57554345 16.8567711 0 0 0
1737 0 5 -0.5726 27.08195489999999 27.08195489999999 15.5382695 0 0 0
1738 0 7 0.1481 26.1882283 26.74893129999999 15.6351182 0 0 0
1739 0 8 0.1481 27.08705219999998 27.804072399999985 14.9045052 0 0 0
1740 0 9 0.1481 27.6545516 26.3785275 15.2256351 0 0 0
1781 0 7 0.1481 32.6261182 26.74893129999999 9.197228299999994 0 0 0
1782 0 8 0.1481 31.8955052 27.804072399999985 10.0960522 0 0 0
1783 0 9 0.1481 32.2166351 26.3785275 10.663551599999998 0 0 0
1823 0 4 -0.191 27.200212259999986 31.74785341 13.805187499999992 0 0 0
1824 0 6 0.1536 27.8839301 31.904000699999997 13.1952106 0 0 0
1829 0 2 -0.28 26.02477488 32.44822243 13.88538502 0 0 0
1831 0 4 -0.191 31.74785341 27.200212259999986 13.805187499999992 0 0 0
1832 0 6 0.1536 31.904000699999997 27.8839301 13.1952106 0 0 0
1837 0 2 -0.28 32.44822243 26.02477488 13.88538502 0 0 0
1859 0 4 -0.191 31.74785341 30.796187499999995 10.20921226 0 0 0
1860 0 6 0.1536 31.904000699999997 30.1862106 10.892930099999997 0 0 0
1865 0 2 -0.28 32.44822243 30.87638502 9.03377488 0 0 0
1888 0 4 -0.191 30.796187499999995 31.74785341 10.20921226 0 0 0
1889 0 6 0.1536 30.1862106 31.904000699999997 10.892930099999997 0 0 0
1890 0 2 -0.28 30.87638502 32.44822243 9.03377488 0 0 0
1909 0 4 -0.191 30.796187499999995 27.200212259999986 14.75685341 0 0 0
1910 0 6 0.1536 30.1862106 27.8839301 14.913000699999992 0 0 0
1911 0 2 -0.28 30.87638502 26.02477488 15.457222429999998 0 0 0
1924 0 4 -0.191 27.200212259999986 30.796187499999995 14.75685341 0 0 0
1925 0 6 0.1536 27.8839301 30.1862106 14.913000699999992 0 0 0
1926 0 2 -0.28 26.02477488 30.87638502 15.457222429999998 0 0 0
298 0 4 -0.191 1.71371226 6.26135341 22.3006875 0 0 0
299 0 6 0.1536 2.3974300999999985 6.4175007 21.6907106 0 0 0
304 0 2 -0.28 0.53827488 6.96172243 22.38088502 0 0 0
306 0 4 -0.191 6.26135341 1.71371226 22.3006875 0 0 0
307 0 6 0.1536 6.4175007 2.3974300999999985 21.6907106 0 0 0
309 0 2 -0.28 6.96172243 0.53827488 22.38088502 0 0 0
340 0 4 -0.191 6.26135341 5.3096875 18.70471225999999 0 0 0
341 0 6 0.1536 6.4175007 4.6997106 19.3884301 0 0 0
346 0 2 -0.28 6.96172243 5.38988502 17.52927488 0 0 0
372 0 4 -0.191 5.3096875 6.26135341 18.70471225999999 0 0 0
373 0 6 0.1536 4.6997106 6.4175007 19.3884301 0 0 0
374 0 2 -0.28 5.38988502 6.96172243 17.52927488 0 0 0
392 0 4 -0.191 5.3096875 1.71371226 23.25235341 0 0 0
393 0 6 0.1536 4.6997106 2.3974300999999985 23.4085007 0 0 0
397 0 2 -0.28 5.38988502 0.53827488 23.95272243 0 0 0
409 0 4 -0.191 1.71371226 5.3096875 23.25235341 0 0 0
410 0 6 0.1536 2.3974300999999985 4.6997106 23.4085007 0 0 0
411 0 2 -0.28 0.53827488 5.38988502 23.95272243 0 0 0
434 0 3 0.4184 2.08904345 8.3612711 19.08004345 0 0 0
437 0 5 -0.5726 1.5954549 7.0427695 18.586454899999993 0 0 0
438 0 7 0.1481 0.7017283 7.1396182 18.2534313 0 0 0
439 0 8 0.1481 1.6005522 6.409005199999999 19.30857239999999 0 0 0
440 0 9 0.1481 2.168051599999999 6.7301351 17.8830275 0 0 0
458 0 3 0.4184 8.3612711 2.08904345 19.08004345 0 0 0
461 0 5 -0.5726 7.0427695 1.5954549 18.586454899999993 0 0 0
491 0 3 0.4184 2.08904345 2.08904345 25.3522711 0 0 0
494 0 5 -0.5726 1.5954549 1.5954549 24.0337695 0 0 0
495 0 7 0.1481 0.7017283 1.2624313 24.1306182 0 0 0
496 0 8 0.1481 1.6005522 2.3175724 23.4000052 0 0 0
497 0 9 0.1481 2.168051599999999 0.8920275 23.7211351 0 0 0
534 0 7 0.1481 7.1396182 1.2624313 17.6927283 0 0 0
535 0 8 0.1481 6.409005199999999 2.3175724 18.591552199999988 0 0 0
536 0 9 0.1481 6.7301351 0.8920275 19.1590516 0 0 0
297 0 3 0.4184 16.8567711 6.40645655 23.39745655 0 0 0
300 0 5 -0.5726 15.5382695 6.900045099999998 23.8910451 0 0 0
301 0 7 0.1481 15.6351182 7.7937717 24.2240687 0 0 0
302 0 8 0.1481 14.9045052 6.8949478 23.1689276 0 0 0
303 0 9 0.1481 15.2256351 6.327448399999999 24.59447249999999 0 0 0
310 0 1 0.6894 8.4955 0 21.23875 0 0 0
317 0 3 0.4184 10.58454345 0.1342289 23.39745655 0 0 0
320 0 5 -0.5726 10.0909549 1.4527305 23.8910451 0 0 0
321 0 7 0.1481 9.197228299999994 1.3558818 24.2240687 0 0 0
322 0 8 0.1481 10.0960522 2.0864948 23.1689276 0 0 0
323 0 9 0.1481 10.663551599999998 1.7653648999999998 24.59447249999999 0 0 0
333 0 3 0.4184 10.58454345 6.40645655 17.1252289 0 0 0
336 0 5 -0.5726 10.0909549 6.900045099999998 18.4437305 0 0 0
347 0 1 0.6894 8.4955 4.24775 16.991 0 0 0
368 0 7 0.1481 9.197228299999994 7.2330687 18.3468818 0 0 0
369 0 8 0.1481 10.0960522 6.1779276 19.0774948 0 0 0
370 0 9 0.1481 10.663551599999998 7.603472499999997 18.7563649 0 0 0
422 0 4 -0.191 14.75685341 6.781787739999999 20.1768125 0 0 0
423 0 6 0.1536 14.913000699999992 6.0980699 20.7867894 0 0 0
428 0 2 -0.28 15.457222429999998 7.95722512 20.09661498 0 0 0
459 0 4 -0.191 10.20921226 2.23414659 20.1768125 0 0 0
460 0 6 0.1536 10.892930099999997 2.0779993 20.7867894 0 0 0
462 0 2 -0.28 9.03377488 1.53377757 20.09661498 0 0 0
487 0 4 -0.191 13.805187499999992 2.23414659 23.77278774 0 0 0
488 0 6 0.1536 13.1952106 2.0779993 23.089069899999995 0 0 0
490 0 2 -0.28 13.88538502 1.53377757 24.94822512 0 0 0
511 0 4 -0.191 14.75685341 3.1858125 23.77278774 0 0 0
512 0 6 0.1536 14.913000699999992 3.7957894 23.089069899999995 0 0 0
516 0 2 -0.28 15.457222429999998 3.10561498 24.94822512 0 0 0
532 0 4 -0.191 10.20921226 3.1858125 19.22514659 0 0 0
533 0 6 0.1536 10.892930099999997 3.7957894 19.0689993 0 0 0
537 0 2 -0.28 9.03377488 3.10561498 18.52477757 0 0 0
547 0 4 -0.191 13.805187499999992 6.781787739999999 19.22514659 0 0 0
548 0 6 0.1536 13.1952106 6.0980699 19.0689993 0 0 0
549 0 2 -0.28 13.88538502 7.95722512 18.52477757 0 0 0
1402 0 4 -0.191 18.70471225999999 6.26135341 22.3006875 0 0 0
1403 0 6 0.1536 19.3884301 6.4175007 21.6907106 0 0 0
1408 0 2 -0.28 17.52927488 6.96172243 22.38088502 0 0 0
1410 0 4 -0.191 23.25235341 1.71371226 22.3006875 0 0 0
1411 0 6 0.1536 23.4085007 2.3974300999999985 21.6907106 0 0 0
1413 0 2 -0.28 23.95272243 0.53827488 22.38088502 0 0 0
1444 0 4 -0.191 23.25235341 5.3096875 18.70471225999999 0 0 0
1445 0 6 0.1536 23.4085007 4.6997106 19.3884301 0 0 0
1450 0 2 -0.28 23.95272243 5.38988502 17.52927488 0 0 0
1476 0 4 -0.191 22.3006875 6.26135341 18.70471225999999 0 0 0
1477 0 6 0.1536 21.6907106 6.4175007 19.3884301 0 0 0
1478 0 2 -0.28 22.38088502 6.96172243 17.52927488 0 0 0
1496 0 4 -0.191 22.3006875 1.71371226 23.25235341 0 0 0
1497 0 6 0.1536 21.6907106 2.3974300999999985 23.4085007 0 0 0
1501 0 2 -0.28 22.38088502 0.53827488 23.95272243 0 0 0
1513 0 4 -0.191 18.70471225999999 5.3096875 23.25235341 0 0 0
1514 0 6 0.1536 19.3884301 4.6997106 23.4085007 0 0 0
1515 0 2 -0.28 17.52927488 5.38988502 23.95272243 0 0 0
1538 0 3 0.4184 19.08004345 8.3612711 19.08004345 0 0 0
1541 0 5 -0.5726 18.586454899999993 7.0427695 18.586454899999993 0 0 0
1542 0 7 0.1481 17.6927283 7.1396182 18.2534313 0 0 0
1543 0 8 0.1481 18.591552199999988 6.409005199999999 19.30857239999999 0 0 0
1544 0 9 0.1481 19.1590516 6.7301351 17.8830275 0 0 0
1562 0 3 0.4184 25.3522711 2.08904345 19.08004345 0 0 0
1565 0 5 -0.5726 24.0337695 1.5954549 18.586454899999993 0 0 0
1595 0 3 0.4184 19.08004345 2.08904345 25.3522711 0 0 0
1598 0 5 -0.5726 18.586454899999993 1.5954549 24.0337695 0 0 0
1599 0 7 0.1481 17.6927283 1.2624313 24.1306182 0 0 0
1600 0 8 0.1481 18.591552199999988 2.3175724 23.4000052 0 0 0
1601 0 9 0.1481 19.1590516 0.8920275 23.7211351 0 0 0
1638 0 7 0.1481 24.1306182 1.2624313 17.6927283 0 0 0
1639 0 8 0.1481 23.4000052 2.3175724 18.591552199999988 0 0 0
1640 0 9 0.1481 23.7211351 0.8920275 19.1590516 0 0 0
1401 0 3 0.4184 33.8477711 6.40645655 23.39745655 0 0 0
1404 0 5 -0.5726 32.5292695 6.900045099999998 23.8910451 0 0 0
1405 0 7 0.1481 32.6261182 7.7937717 24.2240687 0 0 0
1406 0 8 0.1481 31.8955052 6.8949478 23.1689276 0 0 0
1407 0 9 0.1481 32.2166351 6.327448399999999 24.59447249999999 0 0 0
1414 0 1 0.6894 25.4865 0 21.23875 0 0 0
1421 0 3 0.4184 27.57554345 0.1342289 23.39745655 0 0 0
1424 0 5 -0.5726 27.08195489999999 1.4527305 23.8910451 0 0 0
1425 0 7 0.1481 26.1882283 1.3558818 24.2240687 0 0 0
1426 0 8 0.1481 27.08705219999998 2.0864948 23.1689276 0 0 0
1427 0 9 0.1481 27.6545516 1.7653648999999998 24.59447249999999 0 0 0
1437 0 3 0.4184 27.57554345 6.40645655 17.1252289 0 0 0
1440 0 5 -0.5726 27.08195489999999 6.900045099999998 18.4437305 0 0 0
1451 0 1 0.6894 25.4865 4.24775 16.991 0 0 0
1472 0 7 0.1481 26.1882283 7.2330687 18.3468818 0 0 0
1473 0 8 0.1481 27.08705219999998 6.1779276 19.0774948 0 0 0
1474 0 9 0.1481 27.6545516 7.603472499999997 18.7563649 0 0 0
1526 0 4 -0.191 31.74785341 6.781787739999999 20.1768125 0 0 0
1527 0 6 0.1536 31.904000699999997 6.0980699 20.7867894 0 0 0
1532 0 2 -0.28 32.44822243 7.95722512 20.09661498 0 0 0
1563 0 4 -0.191 27.200212259999986 2.23414659 20.1768125 0 0 0
1564 0 6 0.1536 27.8839301 2.0779993 20.7867894 0 0 0
1566 0 2 -0.28 26.02477488 1.53377757 20.09661498 0 0 0
1591 0 4 -0.191 30.796187499999995 2.23414659 23.77278774 0 0 0
1592 0 6 0.1536 30.1862106 2.0779993 23.089069899999995 0 0 0
1594 0 2 -0.28 30.87638502 1.53377757 24.94822512 0 0 0
1615 0 4 -0.191 31.74785341 3.1858125 23.77278774 0 0 0
1616 0 6 0.1536 31.904000699999997 3.7957894 23.089069899999995 0 0 0
1620 0 2 -0.28 32.44822243 3.10561498 24.94822512 0 0 0
1636 0 4 -0.191 27.200212259999986 3.1858125 19.22514659 0 0 0
1637 0 6 0.1536 27.8839301 3.7957894 19.0689993 0 0 0
1641 0 2 -0.28 26.02477488 3.10561498 18.52477757 0 0 0
1651 0 4 -0.191 30.796187499999995 6.781787739999999 19.22514659 0 0 0
1652 0 6 0.1536 30.1862106 6.0980699 19.0689993 0 0 0
1653 0 2 -0.28 30.87638502 7.95722512 18.52477757 0 0 0
283 0 3 0.4184 0.1342289 10.58454345 23.39745655 0 0 0
286 0 5 -0.5726 1.4527305 10.0909549 23.8910451 0 0 0
288 0 1 0.6894 0 8.4955 21.23875 0 0 0
305 0 3 0.4184 6.40645655 16.8567711 23.39745655 0 0 0
308 0 5 -0.5726 6.900045099999998 15.5382695 23.8910451 0 0 0
348 0 3 0.4184 6.40645655 10.58454345 17.1252289 0 0 0
351 0 5 -0.5726 6.900045099999998 10.0909549 18.4437305 0 0 0
353 0 1 0.6894 4.24775 8.4955 16.991 0 0 0
377 0 7 0.1481 7.7937717 9.7579313 18.3468818 0 0 0
378 0 8 0.1481 6.8949478 10.8130724 19.0774948 0 0 0
379 0 9 0.1481 6.327448399999999 9.3875275 18.7563649 0 0 0
383 0 7 0.1481 1.3558818 9.7579313 24.784771699999997 0 0 0
384 0 8 0.1481 2.0864948 10.8130724 23.885947799999983 0 0 0
385 0 9 0.1481 1.7653648999999998 9.3875275 23.3184484 0 0 0
394 0 7 0.1481 7.2330687 15.6351182 24.784771699999997 0 0 0
395 0 8 0.1481 6.1779276 14.9045052 23.885947799999983 0 0 0
396 0 9 0.1481 7.603472499999997 15.2256351 23.3184484 0 0 0
435 0 4 -0.191 2.23414659 10.20921226 20.1768125 0 0 0
436 0 6 0.1536 2.0779993 10.892930099999997 20.7867894 0 0 0
441 0 2 -0.28 1.53377757 9.03377488 20.09661498 0 0 0
469 0 4 -0.191 6.781787739999999 14.75685341 20.1768125 0 0 0
470 0 6 0.1536 6.0980699 14.913000699999992 20.7867894 0 0 0
472 0 2 -0.28 7.95722512 15.457222429999998 20.09661498 0 0 0
474 0 4 -0.191 3.1858125 14.75685341 23.77278774 0 0 0
475 0 6 0.1536 3.7957894 14.913000699999992 23.089069899999995 0 0 0
477 0 2 -0.28 3.10561498 15.457222429999998 24.94822512 0 0 0
502 0 4 -0.191 2.23414659 13.805187499999992 23.77278774 0 0 0
503 0 6 0.1536 2.0779993 13.1952106 23.089069899999995 0 0 0
507 0 2 -0.28 1.53377757 13.88538502 24.94822512 0 0 0
523 0 4 -0.191 6.781787739999999 13.805187499999992 19.22514659 0 0 0
524 0 6 0.1536 6.0980699 13.1952106 19.0689993 0 0 0
528 0 2 -0.28 7.95722512 13.88538502 18.52477757 0 0 0
550 0 4 -0.191 3.1858125 10.20921226 19.22514659 0 0 0
551 0 6 0.1536 3.7957894 10.892930099999997 19.0689993 0 0 0
552 0 2 -0.28 3.10561498 9.03377488 18.52477757 0 0 0
284 0 4 -0.191 15.27728774 10.72964659 22.3006875 0 0 0
285 0 6 0.1536 14.5935699 10.5734993 21.6907106 0 0 0
287 0 2 -0.28 16.45272512 10.02927757 22.38088502 0 0 0
318 0 4 -0.191 10.72964659 15.27728774 22.3006875 0 0 0
319 0 6 0.1536 10.5734993 14.5935699 21.6907106 0 0 0
324 0 2 -0.28 10.02927757 16.45272512 22.38088502 0 0 0
338 0 1 0.6894 12.74325 8.4955 16.991 0 0 0
355 0 4 -0.191 10.72964659 11.6813125 18.70471225999999 0 0 0
356 0 6 0.1536 10.5734993 12.2912894 19.3884301 0 0 0
361 0 2 -0.28 10.02927757 11.60111498 17.52927488 0 0 0
362 0 1 0.6894 8.4955 12.74325 16.991 0 0 0
363 0 4 -0.191 11.6813125 10.72964659 18.70471225999999 0 0 0
364 0 6 0.1536 12.2912894 10.5734993 19.3884301 0 0 0
365 0 2 -0.28 11.60111498 10.02927757 17.52927488 0 0 0
381 0 4 -0.191 15.27728774 11.6813125 23.25235341 0 0 0
382 0 6 0.1536 14.5935699 12.2912894 23.4085007 0 0 0
386 0 2 -0.28 16.45272512 11.60111498 23.95272243 0 0 0
405 0 4 -0.191 11.6813125 15.27728774 23.25235341 0 0 0
406 0 6 0.1536 12.2912894 14.5935699 23.4085007 0 0 0
407 0 2 -0.28 11.60111498 16.45272512 23.95272243 0 0 0
421 0 3 0.4184 14.90195655 8.6297289 19.08004345 0 0 0
424 0 5 -0.5726 15.3955451 9.948230499999994 18.586454899999993 0 0 0
425 0 7 0.1481 16.2892717 9.851381799999993 18.2534313 0 0 0
426 0 8 0.1481 15.3904478 10.5819948 19.30857239999999 0 0 0
427 0 9 0.1481 14.8229484 10.2608649 17.8830275 0 0 0
468 0 3 0.4184 8.6297289 14.90195655 19.08004345 0 0 0
471 0 5 -0.5726 9.948230499999994 15.3955451 18.586454899999993 0 0 0
478 0 3 0.4184 14.90195655 14.90195655 25.3522711 0 0 0
481 0 5 -0.5726 15.3955451 15.3955451 24.0337695 0 0 0
482 0 7 0.1481 16.2892717 15.728568699999993 24.1306182 0 0 0
483 0 8 0.1481 15.3904478 14.6734276 23.4000052 0 0 0
484 0 9 0.1481 14.8229484 16.0989725 23.7211351 0 0 0
525 0 7 0.1481 9.851381799999993 15.728568699999993 17.6927283 0 0 0
526 0 8 0.1481 10.5819948 14.6734276 18.591552199999988 0 0 0
527 0 9 0.1481 10.2608649 16.0989725 19.1590516 0 0 0
1387 0 3 0.4184 17.1252289 10.58454345 23.39745655 0 0 0
1390 0 5 -0.5726 18.4437305 10.0909549 23.8910451 0 0 0
1392 0 1 0.6894 16.991 8.4955 21.23875 0 0 0
1409 0 3 0.4184 23.39745655 16.8567711 23.39745655 0 0 0
1412 0 5 -0.5726 23.8910451 15.5382695 23.8910451 0 0 0
1452 0 3 0.4184 23.39745655 10.58454345 17.1252289 0 0 0
1455 0 5 -0.5726 23.8910451 10.0909549 18.4437305 0 0 0
1457 0 1 0.6894 21.23875 8.4955 16.991 0 0 0
1481 0 7 0.1481 24.784771699999997 9.7579313 18.3468818 0 0 0
1482 0 8 0.1481 23.885947799999983 10.8130724 19.0774948 0 0 0
1483 0 9 0.1481 23.3184484 9.3875275 18.7563649 0 0 0
1487 0 7 0.1481 18.3468818 9.7579313 24.784771699999997 0 0 0
1488 0 8 0.1481 19.0774948 10.8130724 23.885947799999983 0 0 0
1489 0 9 0.1481 18.7563649 9.3875275 23.3184484 0 0 0
1498 0 7 0.1481 24.2240687 15.6351182 24.784771699999997 0 0 0
1499 0 8 0.1481 23.1689276 14.9045052 23.885947799999983 0 0 0
1500 0 9 0.1481 24.59447249999999 15.2256351 23.3184484 0 0 0
1539 0 4 -0.191 19.22514659 10.20921226 20.1768125 0 0 0
1540 0 6 0.1536 19.0689993 10.892930099999997 20.7867894 0 0 0
1545 0 2 -0.28 18.52477757 9.03377488 20.09661498 0 0 0
1573 0 4 -0.191 23.77278774 14.75685341 20.1768125 0 0 0
1574 0 6 0.1536 23.089069899999995 14.913000699999992 20.7867894 0 0 0
1576 0 2 -0.28 24.94822512 15.457222429999998 20.09661498 0 0 0
1578 0 4 -0.191 20.1768125 14.75685341 23.77278774 0 0 0
1579 0 6 0.1536 20.7867894 14.913000699999992 23.089069899999995 0 0 0
1581 0 2 -0.28 20.09661498 15.457222429999998 24.94822512 0 0 0
1606 0 4 -0.191 19.22514659 13.805187499999992 23.77278774 0 0 0
1607 0 6 0.1536 19.0689993 13.1952106 23.089069899999995 0 0 0
1611 0 2 -0.28 18.52477757 13.88538502 24.94822512 0 0 0
1627 0 4 -0.191 23.77278774 13.805187499999992 19.22514659 0 0 0
1628 0 6 0.1536 23.089069899999995 13.1952106 19.0689993 0 0 0
1632 0 2 -0.28 24.94822512 13.88538502 18.52477757 0 0 0
1654 0 4 -0.191 20.1768125 10.20921226 19.22514659 0 0 0
1655 0 6 0.1536 20.7867894 10.892930099999997 19.0689993 0 0 0
1656 0 2 -0.28 20.09661498 9.03377488 18.52477757 0 0 0
1388 0 4 -0.191 32.26828774 10.72964659 22.3006875 0 0 0
1389 0 6 0.1536 31.58456989999999 10.5734993 21.6907106 0 0 0
1391 0 2 -0.28 33.44372512 10.02927757 22.38088502 0 0 0
1422 0 4 -0.191 27.72064659 15.27728774 22.3006875 0 0 0
1423 0 6 0.1536 27.5644993 14.5935699 21.6907106 0 0 0
1428 0 2 -0.28 27.02027757 16.45272512 22.38088502 0 0 0
1442 0 1 0.6894 29.73425 8.4955 16.991 0 0 0
1459 0 4 -0.191 27.72064659 11.6813125 18.70471225999999 0 0 0
1460 0 6 0.1536 27.5644993 12.2912894 19.3884301 0 0 0
1465 0 2 -0.28 27.02027757 11.60111498 17.52927488 0 0 0
1466 0 1 0.6894 25.4865 12.74325 16.991 0 0 0
1467 0 4 -0.191 28.6723125 10.72964659 18.70471225999999 0 0 0
1468 0 6 0.1536 29.2822894 10.5734993 19.3884301 0 0 0
1469 0 2 -0.28 28.59211498 10.02927757 17.52927488 0 0 0
1485 0 4 -0.191 32.26828774 11.6813125 23.25235341 0 0 0
1486 0 6 0.1536 31.58456989999999 12.2912894 23.4085007 0 0 0
1490 0 2 -0.28 33.44372512 11.60111498 23.95272243 0 0 0
1509 0 4 -0.191 28.6723125 15.27728774 23.25235341 0 0 0
1510 0 6 0.1536 29.2822894 14.5935699 23.4085007 0 0 0
1511 0 2 -0.28 28.59211498 16.45272512 23.95272243 0 0 0
1525 0 3 0.4184 31.89295655 8.6297289 19.08004345 0 0 0
1528 0 5 -0.5726 32.3865451 9.948230499999994 18.586454899999993 0 0 0
1529 0 7 0.1481 33.2802717 9.851381799999993 18.2534313 0 0 0
1530 0 8 0.1481 32.3814478 10.5819948 19.30857239999999 0 0 0
1531 0 9 0.1481 31.8139484 10.2608649 17.8830275 0 0 0
1572 0 3 0.4184 25.6207289 14.90195655 19.08004345 0 0 0
1575 0 5 -0.5726 26.939230499999997 15.3955451 18.586454899999993 0 0 0
1582 0 3 0.4184 31.89295655 14.90195655 25.3522711 0 0 0
1585 0 5 -0.5726 32.3865451 15.3955451 24.0337695 0 0 0
1586 0 7 0.1481 33.2802717 15.728568699999993 24.1306182 0 0 0
1587 0 8 0.1481 32.3814478 14.6734276 23.4000052 0 0 0
1588 0 9 0.1481 31.8139484 16.0989725 23.7211351 0 0 0
1629 0 7 0.1481 26.8423818 15.728568699999993 17.6927283 0 0 0
1630 0 8 0.1481 27.5729948 14.6734276 18.591552199999988 0 0 0
1631 0 9 0.1481 27.2518649 16.0989725 19.1590516 0 0 0
850 0 4 -0.191 1.71371226 23.25235341 22.3006875 0 0 0
851 0 6 0.1536 2.3974300999999985 23.4085007 21.6907106 0 0 0
856 0 2 -0.28 0.53827488 23.95272243 22.38088502 0 0 0
858 0 4 -0.191 6.26135341 18.70471225999999 22.3006875 0 0 0
859 0 6 0.1536 6.4175007 19.3884301 21.6907106 0 0 0
861 0 2 -0.28 6.96172243 17.52927488 22.38088502 0 0 0
892 0 4 -0.191 6.26135341 22.3006875 18.70471225999999 0 0 0
893 0 6 0.1536 6.4175007 21.6907106 19.3884301 0 0 0
898 0 2 -0.28 6.96172243 22.38088502 17.52927488 0 0 0
924 0 4 -0.191 5.3096875 23.25235341 18.70471225999999 0 0 0
925 0 6 0.1536 4.6997106 23.4085007 19.3884301 0 0 0
926 0 2 -0.28 5.38988502 23.95272243 17.52927488 0 0 0
944 0 4 -0.191 5.3096875 18.70471225999999 23.25235341 0 0 0
945 0 6 0.1536 4.6997106 19.3884301 23.4085007 0 0 0
949 0 2 -0.28 5.38988502 17.52927488 23.95272243 0 0 0
961 0 4 -0.191 1.71371226 22.3006875 23.25235341 0 0 0
962 0 6 0.1536 2.3974300999999985 21.6907106 23.4085007 0 0 0
963 0 2 -0.28 0.53827488 22.38088502 23.95272243 0 0 0
986 0 3 0.4184 2.08904345 25.3522711 19.08004345 0 0 0
989 0 5 -0.5726 1.5954549 24.0337695 18.586454899999993 0 0 0
990 0 7 0.1481 0.7017283 24.1306182 18.2534313 0 0 0
991 0 8 0.1481 1.6005522 23.4000052 19.30857239999999 0 0 0
992 0 9 0.1481 2.168051599999999 23.7211351 17.8830275 0 0 0
1010 0 3 0.4184 8.3612711 19.08004345 19.08004345 0 0 0
1013 0 5 -0.5726 7.0427695 18.586454899999993 18.586454899999993 0 0 0
1043 0 3 0.4184 2.08904345 19.08004345 25.3522711 0 0 0
1046 0 5 -0.5726 1.5954549 18.586454899999993 24.0337695 0 0 0
1047 0 7 0.1481 0.7017283 18.2534313 24.1306182 0 0 0
1048 0 8 0.1481 1.6005522 19.30857239999999 23.4000052 0 0 0
1049 0 9 0.1481 2.168051599999999 17.8830275 23.7211351 0 0 0
1086 0 7 0.1481 7.1396182 18.2534313 17.6927283 0 0 0
1087 0 8 0.1481 6.409005199999999 19.30857239999999 18.591552199999988 0 0 0
1088 0 9 0.1481 6.7301351 17.8830275 19.1590516 0 0 0
849 0 3 0.4184 16.8567711 23.39745655 23.39745655 0 0 0
852 0 5 -0.5726 15.5382695 23.8910451 23.8910451 0 0 0
853 0 7 0.1481 15.6351182 24.784771699999997 24.2240687 0 0 0
854 0 8 0.1481 14.9045052 23.885947799999983 23.1689276 0 0 0
855 0 9 0.1481 15.2256351 23.3184484 24.59447249999999 0 0 0
862 0 1 0.6894 8.4955 16.991 21.23875 0 0 0
869 0 3 0.4184 10.58454345 17.1252289 23.39745655 0 0 0
872 0 5 -0.5726 10.0909549 18.4437305 23.8910451 0 0 0
873 0 7 0.1481 9.197228299999994 18.3468818 24.2240687 0 0 0
874 0 8 0.1481 10.0960522 19.0774948 23.1689276 0 0 0
875 0 9 0.1481 10.663551599999998 18.7563649 24.59447249999999 0 0 0
885 0 3 0.4184 10.58454345 23.39745655 17.1252289 0 0 0
888 0 5 -0.5726 10.0909549 23.8910451 18.4437305 0 0 0
899 0 1 0.6894 8.4955 21.23875 16.991 0 0 0
920 0 7 0.1481 9.197228299999994 24.2240687 18.3468818 0 0 0
921 0 8 0.1481 10.0960522 23.1689276 19.0774948 0 0 0
922 0 9 0.1481 10.663551599999998 24.59447249999999 18.7563649 0 0 0
974 0 4 -0.191 14.75685341 23.77278774 20.1768125 0 0 0
975 0 6 0.1536 14.913000699999992 23.089069899999995 20.7867894 0 0 0
980 0 2 -0.28 15.457222429999998 24.94822512 20.09661498 0 0 0
1011 0 4 -0.191 10.20921226 19.22514659 20.1768125 0 0 0
1012 0 6 0.1536 10.892930099999997 19.0689993 20.7867894 0 0 0
1014 0 2 -0.28 9.03377488 18.52477757 20.09661498 0 0 0
1039 0 4 -0.191 13.805187499999992 19.22514659 23.77278774 0 0 0
1040 0 6 0.1536 13.1952106 19.0689993 23.089069899999995 0 0 0
1042 0 2 -0.28 13.88538502 18.52477757 24.94822512 0 0 0
1063 0 4 -0.191 14.75685341 20.1768125 23.77278774 0 0 0
1064 0 6 0.1536 14.913000699999992 20.7867894 23.089069899999995 0 0 0
1068 0 2 -0.28 15.457222429999998 20.09661498 24.94822512 0 0 0
1084 0 4 -0.191 10.20921226 20.1768125 19.22514659 0 0 0
1085 0 6 0.1536 10.892930099999997 20.7867894 19.0689993 0 0 0
1089 0 2 -0.28 9.03377488 20.09661498 18.52477757 0 0 0
1099 0 4 -0.191 13.805187499999992 23.77278774 19.22514659 0 0 0
1100 0 6 0.1536 13.1952106 23.089069899999995 19.0689993 0 0 0
1101 0 2 -0.28 13.88538502 24.94822512 18.52477757 0 0 0
1954 0 4 -0.191 18.70471225999999 23.25235341 22.3006875 0 0 0
1955 0 6 0.1536 19.3884301 23.4085007 21.6907106 0 0 0
1960 0 2 -0.28 17.52927488 23.95272243 22.38088502 0 0 0
1962 0 4 -0.191 23.25235341 18.70471225999999 22.3006875 0 0 0
1963 0 6 0.1536 23.4085007 19.3884301 21.6907106 0 0 0
1965 0 2 -0.28 23.95272243 17.52927488 22.38088502 0 0 0
1996 0 4 -0.191 23.25235341 22.3006875 18.70471225999999 0 0 0
1997 0 6 0.1536 23.4085007 21.6907106 19.3884301 0 0 0
2002 0 2 -0.28 23.95272243 22.38088502 17.52927488 0 0 0
2028 0 4 -0.191 22.3006875 23.25235341 18.70471225999999 0 0 0
2029 0 6 0.1536 21.6907106 23.4085007 19.3884301 0 0 0
2030 0 2 -0.28 22.38088502 23.95272243 17.52927488 0 0 0
2048 0 4 -0.191 22.3006875 18.70471225999999 23.25235341 0 0 0
2049 0 6 0.1536 21.6907106 19.3884301 23.4085007 0 0 0
2053 0 2 -0.28 22.38088502 17.52927488 23.95272243 0 0 0
2065 0 4 -0.191 18.70471225999999 22.3006875 23.25235341 0 0 0
2066 0 6 0.1536 19.3884301 21.6907106 23.4085007 0 0 0
2067 0 2 -0.28 17.52927488 22.38088502 23.95272243 0 0 0
2090 0 3 0.4184 19.08004345 25.3522711 19.08004345 0 0 0
2093 0 5 -0.5726 18.586454899999993 24.0337695 18.586454899999993 0 0 0
2094 0 7 0.1481 17.6927283 24.1306182 18.2534313 0 0 0
2095 0 8 0.1481 18.591552199999988 23.4000052 19.30857239999999 0 0 0
2096 0 9 0.1481 19.1590516 23.7211351 17.8830275 0 0 0
2114 0 3 0.4184 25.3522711 19.08004345 19.08004345 0 0 0
2117 0 5 -0.5726 24.0337695 18.586454899999993 18.586454899999993 0 0 0
2147 0 3 0.4184 19.08004345 19.08004345 25.3522711 0 0 0
2150 0 5 -0.5726 18.586454899999993 18.586454899999993 24.0337695 0 0 0
2151 0 7 0.1481 17.6927283 18.2534313 24.1306182 0 0 0
2152 0 8 0.1481 18.591552199999988 19.30857239999999 23.4000052 0 0 0
2153 0 9 0.1481 19.1590516 17.8830275 23.7211351 0 0 0
2190 0 7 0.1481 24.1306182 18.2534313 17.6927283 0 0 0
2191 0 8 0.1481 23.4000052 19.30857239999999 18.591552199999988 0 0 0
2192 0 9 0.1481 23.7211351 17.8830275 19.1590516 0 0 0
1953 0 3 0.4184 33.8477711 23.39745655 23.39745655 0 0 0
1956 0 5 -0.5726 32.5292695 23.8910451 23.8910451 0 0 0
1957 0 7 0.1481 32.6261182 24.784771699999997 24.2240687 0 0 0
1958 0 8 0.1481 31.8955052 23.885947799999983 23.1689276 0 0 0
1959 0 9 0.1481 32.2166351 23.3184484 24.59447249999999 0 0 0
1966 0 1 0.6894 25.4865 16.991 21.23875 0 0 0
1973 0 3 0.4184 27.57554345 17.1252289 23.39745655 0 0 0
1976 0 5 -0.5726 27.08195489999999 18.4437305 23.8910451 0 0 0
1977 0 7 0.1481 26.1882283 18.3468818 24.2240687 0 0 0
1978 0 8 0.1481 27.08705219999998 19.0774948 23.1689276 0 0 0
1979 0 9 0.1481 27.6545516 18.7563649 24.59447249999999 0 0 0
1989 0 3 0.4184 27.57554345 23.39745655 17.1252289 0 0 0
1992 0 5 -0.5726 27.08195489999999 23.8910451 18.4437305 0 0 0
2003 0 1 0.6894 25.4865 21.23875 16.991 0 0 0
2024 0 7 0.1481 26.1882283 24.2240687 18.3468818 0 0 0
2025 0 8 0.1481 27.08705219999998 23.1689276 19.0774948 0 0 0
2026 0 9 0.1481 27.6545516 24.59447249999999 18.7563649 0 0 0
2078 0 4 -0.191 31.74785341 23.77278774 20.1768125 0 0 0
2079 0 6 0.1536 31.904000699999997 23.089069899999995 20.7867894 0 0 0
2084 0 2 -0.28 32.44822243 24.94822512 20.09661498 0 0 0
2115 0 4 -0.191 27.200212259999986 19.22514659 20.1768125 0 0 0
2116 0 6 0.1536 27.8839301 19.0689993 20.7867894 0 0 0
2118 0 2 -0.28 26.02477488 18.52477757 20.09661498 0 0 0
2143 0 4 -0.191 30.796187499999995 19.22514659 23.77278774 0 0 0
2144 0 6 0.1536 30.1862106 19.0689993 23.089069899999995 0 0 0
2146 0 2 -0.28 30.87638502 18.52477757 24.94822512 0 0 0
2167 0 4 -0.191 31.74785341 20.1768125 23.77278774 0 0 0
2168 0 6 0.1536 31.904000699999997 20.7867894 23.089069899999995 0 0 0
2172 0 2 -0.28 32.44822243 20.09661498 24.94822512 0 0 0
2188 0 4 -0.191 27.200212259999986 20.1768125 19.22514659 0 0 0
2189 0 6 0.1536 27.8839301 20.7867894 19.0689993 0 0 0
2193 0 2 -0.28 26.02477488 20.09661498 18.52477757 0 0 0
2203 0 4 -0.191 30.796187499999995 23.77278774 19.22514659 0 0 0
2204 0 6 0.1536 30.1862106 23.089069899999995 19.0689993 0 0 0
2205 0 2 -0.28 30.87638502 24.94822512 18.52477757 0 0 0
835 0 3 0.4184 0.1342289 27.57554345 23.39745655 0 0 0
838 0 5 -0.5726 1.4527305 27.08195489999999 23.8910451 0 0 0
840 0 1 0.6894 0 25.4865 21.23875 0 0 0
857 0 3 0.4184 6.40645655 33.8477711 23.39745655 0 0 0
860 0 5 -0.5726 6.900045099999998 32.5292695 23.8910451 0 0 0
900 0 3 0.4184 6.40645655 27.57554345 17.1252289 0 0 0
903 0 5 -0.5726 6.900045099999998 27.08195489999999 18.4437305 0 0 0
905 0 1 0.6894 4.24775 25.4865 16.991 0 0 0
929 0 7 0.1481 7.7937717 26.74893129999999 18.3468818 0 0 0
930 0 8 0.1481 6.8949478 27.804072399999985 19.0774948 0 0 0
931 0 9 0.1481 6.327448399999999 26.3785275 18.7563649 0 0 0
935 0 7 0.1481 1.3558818 26.74893129999999 24.784771699999997 0 0 0
936 0 8 0.1481 2.0864948 27.804072399999985 23.885947799999983 0 0 0
937 0 9 0.1481 1.7653648999999998 26.3785275 23.3184484 0 0 0
946 0 7 0.1481 7.2330687 32.6261182 24.784771699999997 0 0 0
947 0 8 0.1481 6.1779276 31.8955052 23.885947799999983 0 0 0
948 0 9 0.1481 7.603472499999997 32.2166351 23.3184484 0 0 0
987 0 4 -0.191 2.23414659 27.200212259999986 20.1768125 0 0 0
988 0 6 0.1536 2.0779993 27.8839301 20.7867894 0 0 0
993 0 2 -0.28 1.53377757 26.02477488 20.09661498 0 0 0
1021 0 4 -0.191 6.781787739999999 31.74785341 20.1768125 0 0 0
1022 0 6 0.1536 6.0980699 31.904000699999997 20.7867894 0 0 0
1024 0 2 -0.28 7.95722512 32.44822243 20.09661498 0 0 0
1026 0 4 -0.191 3.1858125 31.74785341 23.77278774 0 0 0
1027 0 6 0.1536 3.7957894 31.904000699999997 23.089069899999995 0 0 0
1029 0 2 -0.28 3.10561498 32.44822243 24.94822512 0 0 0
1054 0 4 -0.191 2.23414659 30.796187499999995 23.77278774 0 0 0
1055 0 6 0.1536 2.0779993 30.1862106 23.089069899999995 0 0 0
1059 0 2 -0.28 1.53377757 30.87638502 24.94822512 0 0 0
1075 0 4 -0.191 6.781787739999999 30.796187499999995 19.22514659 0 0 0
1076 0 6 0.1536 6.0980699 30.1862106 19.0689993 0 0 0
1080 0 2 -0.28 7.95722512 30.87638502 18.52477757 0 0 0
1102 0 4 -0.191 3.1858125 27.200212259999986 19.22514659 0 0 0
1103 0 6 0.1536 3.7957894 27.8839301 19.0689993 0 0 0
1104 0 2 -0.28 3.10561498 26.02477488 18.52477757 0 0 0
836 0 4 -0.191 15.27728774 27.72064659 22.3006875 0 0 0
837 0 6 0.1536 14.5935699 27.5644993 21.6907106 0 0 0
839 0 2 -0.28 16.45272512 27.02027757 22.38088502 0 0 0
870 0 4 -0.191 10.72964659 32.26828774 22.3006875 0 0 0
871 0 6 0.1536 10.5734993 31.58456989999999 21.6907106 0 0 0
876 0 2 -0.28 10.02927757 33.44372512 22.38088502 0 0 0
890 0 1 0.6894 12.74325 25.4865 16.991 0 0 0
907 0 4 -0.191 10.72964659 28.6723125 18.70471225999999 0 0 0
908 0 6 0.1536 10.5734993 29.2822894 19.3884301 0 0 0
913 0 2 -0.28 10.02927757 28.59211498 17.52927488 0 0 0
914 0 1 0.6894 8.4955 29.73425 16.991 0 0 0
915 0 4 -0.191 11.6813125 27.72064659 18.70471225999999 0 0 0
916 0 6 0.1536 12.2912894 27.5644993 19.3884301 0 0 0
917 0 2 -0.28 11.60111498 27.02027757 17.52927488 0 0 0
933 0 4 -0.191 15.27728774 28.6723125 23.25235341 0 0 0
934 0 6 0.1536 14.5935699 29.2822894 23.4085007 0 0 0
938 0 2 -0.28 16.45272512 28.59211498 23.95272243 0 0 0
957 0 4 -0.191 11.6813125 32.26828774 23.25235341 0 0 0
958 0 6 0.1536 12.2912894 31.58456989999999 23.4085007 0 0 0
959 0 2 -0.28 11.60111498 33.44372512 23.95272243 0 0 0
973 0 3 0.4184 14.90195655 25.6207289 19.08004345 0 0 0
976 0 5 -0.5726 15.3955451 26.939230499999997 18.586454899999993 0 0 0
977 0 7 0.1481 16.2892717 26.8423818 18.2534313 0 0 0
978 0 8 0.1481 15.3904478 27.5729948 19.30857239999999 0 0 0
979 0 9 0.1481 14.8229484 27.2518649 17.8830275 0 0 0
1020 0 3 0.4184 8.6297289 31.89295655 19.08004345 0 0 0
1023 0 5 -0.5726 9.948230499999994 32.3865451 18.586454899999993 0 0 0
1030 0 3 0.4184 14.90195655 31.89295655 25.3522711 0 0 0
1033 0 5 -0.5726 15.3955451 32.3865451 24.0337695 0 0 0
1034 0 7 0.1481 16.2892717 32.7195687 24.1306182 0 0 0
1035 0 8 0.1481 15.3904478 31.6644276 23.4000052 0 0 0
1036 0 9 0.1481 14.8229484 33.0899725 23.7211351 0 0 0
1077 0 7 0.1481 9.851381799999993 32.7195687 17.6927283 0 0 0
1078 0 8 0.1481 10.5819948 31.6644276 18.591552199999988 0 0 0
1079 0 9 0.1481 10.2608649 33.0899725 19.1590516 0 0 0
1939 0 3 0.4184 17.1252289 27.57554345 23.39745655 0 0 0
1942 0 5 -0.5726 18.4437305 27.08195489999999 23.8910451 0 0 0
1944 0 1 0.6894 16.991 25.4865 21.23875 0 0 0
1961 0 3 0.4184 23.39745655 33.8477711 23.39745655 0 0 0
1964 0 5 -0.5726 23.8910451 32.5292695 23.8910451 0 0 0
2004 0 3 0.4184 23.39745655 27.57554345 17.1252289 0 0 0
2007 0 5 -0.5726 23.8910451 27.08195489999999 18.4437305 0 0 0
2009 0 1 0.6894 21.23875 25.4865 16.991 0 0 0
2033 0 7 0.1481 24.784771699999997 26.74893129999999 18.3468818 0 0 0
2034 0 8 0.1481 23.885947799999983 27.804072399999985 19.0774948 0 0 0
2035 0 9 0.1481 23.3184484 26.3785275 18.7563649 0 0 0
2039 0 7 0.1481 18.3468818 26.74893129999999 24.784771699999997 0 0 0
2040 0 8 0.1481 19.0774948 27.804072399999985 23.885947799999983 0 0 0
2041 0 9 0.1481 18.7563649 26.3785275 23.3184484 0 0 0
2050 0 7 0.1481 24.2240687 32.6261182 24.784771699999997 0 0 0
2051 0 8 0.1481 23.1689276 31.8955052 23.885947799999983 0 0 0
2052 0 9 0.1481 24.59447249999999 32.2166351 23.3184484 0 0 0
2091 0 4 -0.191 19.22514659 27.200212259999986 20.1768125 0 0 0
2092 0 6 0.1536 19.0689993 27.8839301 20.7867894 0 0 0
2097 0 2 -0.28 18.52477757 26.02477488 20.09661498 0 0 0
2125 0 4 -0.191 23.77278774 31.74785341 20.1768125 0 0 0
2126 0 6 0.1536 23.089069899999995 31.904000699999997 20.7867894 0 0 0
2128 0 2 -0.28 24.94822512 32.44822243 20.09661498 0 0 0
2130 0 4 -0.191 20.1768125 31.74785341 23.77278774 0 0 0
2131 0 6 0.1536 20.7867894 31.904000699999997 23.089069899999995 0 0 0
2133 0 2 -0.28 20.09661498 32.44822243 24.94822512 0 0 0
2158 0 4 -0.191 19.22514659 30.796187499999995 23.77278774 0 0 0
2159 0 6 0.1536 19.0689993 30.1862106 23.089069899999995 0 0 0
2163 0 2 -0.28 18.52477757 30.87638502 24.94822512 0 0 0
2179 0 4 -0.191 23.77278774 30.796187499999995 19.22514659 0 0 0
2180 0 6 0.1536 23.089069899999995 30.1862106 19.0689993 0 0 0
2184 0 2 -0.28 24.94822512 30.87638502 18.52477757 0 0 0
2206 0 4 -0.191 20.1768125 27.200212259999986 19.22514659 0 0 0
2207 0 6 0.1536 20.7867894 27.8839301 19.0689993 0 0 0
2208 0 2 -0.28 20.09661498 26.02477488 18.52477757 0 0 0
1940 0 4 -0.191 32.26828774 27.72064659 22.3006875 0 0 0
1941 0 6 0.1536 31.58456989999999 27.5644993 21.6907106 0 0 0
1943 0 2 -0.28 33.44372512 27.02027757 22.38088502 0 0 0
1974 0 4 -0.191 27.72064659 32.26828774 22.3006875 0 0 0
1975 0 6 0.1536 27.5644993 31.58456989999999 21.6907106 0 0 0
1980 0 2 -0.28 27.02027757 33.44372512 22.38088502 0 0 0
1994 0 1 0.6894 29.73425 25.4865 16.991 0 0 0
2011 0 4 -0.191 27.72064659 28.6723125 18.70471225999999 0 0 0
2012 0 6 0.1536 27.5644993 29.2822894 19.3884301 0 0 0
2017 0 2 -0.28 27.02027757 28.59211498 17.52927488 0 0 0
2018 0 1 0.6894 25.4865 29.73425 16.991 0 0 0
2019 0 4 -0.191 28.6723125 27.72064659 18.70471225999999 0 0 0
2020 0 6 0.1536 29.2822894 27.5644993 19.3884301 0 0 0
2021 0 2 -0.28 28.59211498 27.02027757 17.52927488 0 0 0
2037 0 4 -0.191 32.26828774 28.6723125 23.25235341 0 0 0
2038 0 6 0.1536 31.58456989999999 29.2822894 23.4085007 0 0 0
2042 0 2 -0.28 33.44372512 28.59211498 23.95272243 0 0 0
2061 0 4 -0.191 28.6723125 32.26828774 23.25235341 0 0 0
2062 0 6 0.1536 29.2822894 31.58456989999999 23.4085007 0 0 0
2063 0 2 -0.28 28.59211498 33.44372512 23.95272243 0 0 0
2077 0 3 0.4184 31.89295655 25.6207289 19.08004345 0 0 0
2080 0 5 -0.5726 32.3865451 26.939230499999997 18.586454899999993 0 0 0
2081 0 7 0.1481 33.2802717 26.8423818 18.2534313 0 0 0
2082 0 8 0.1481 32.3814478 27.5729948 19.30857239999999 0 0 0
2083 0 9 0.1481 31.8139484 27.2518649 17.8830275 0 0 0
2124 0 3 0.4184 25.6207289 31.89295655 19.08004345 0 0 0
2127 0 5 -0.5726 26.939230499999997 32.3865451 18.586454899999993 0 0 0
2134 0 3 0.4184 31.89295655 31.89295655 25.3522711 0 0 0
2137 0 5 -0.5726 32.3865451 32.3865451 24.0337695 0 0 0
2138 0 7 0.1481 33.2802717 32.7195687 24.1306182 0 0 0
2139 0 8 0.1481 32.3814478 31.6644276 23.4000052 0 0 0
2140 0 9 0.1481 31.8139484 33.0899725 23.7211351 0 0 0
2181 0 7 0.1481 26.8423818 32.7195687 17.6927283 0 0 0
2182 0 8 0.1481 27.5729948 31.6644276 18.591552199999988 0 0 0
2183 0 9 0.1481 27.2518649 33.0899725 19.1590516 0 0 0
277 0 3 0.4184 6.40645655 0.1342289 27.57554345 0 0 0
280 0 5 -0.5726 6.900045099999998 1.4527305 27.08195489999999 0 0 0
325 0 3 0.4184 0.1342289 6.40645655 27.57554345 0 0 0
328 0 5 -0.5726 1.4527305 6.900045099999998 27.08195489999999 0 0 0
329 0 7 0.1481 1.3558818 7.7937717 26.74893129999999 0 0 0
330 0 8 0.1481 2.0864948 6.8949478 27.804072399999985 0 0 0
331 0 9 0.1481 1.7653648999999998 6.327448399999999 26.3785275 0 0 0
339 0 3 0.4184 6.40645655 6.40645655 33.8477711 0 0 0
342 0 5 -0.5726 6.900045099999998 6.900045099999998 32.5292695 0 0 0
343 0 7 0.1481 7.7937717 7.2330687 32.6261182 0 0 0
344 0 8 0.1481 6.8949478 6.1779276 31.8955052 0 0 0
345 0 9 0.1481 6.327448399999999 7.603472499999997 32.2166351 0 0 0
391 0 1 0.6894 0 4.24775 25.4865 0 0 0
398 0 1 0.6894 4.24775 0 25.4865 0 0 0
414 0 7 0.1481 7.2330687 1.3558818 26.1882283 0 0 0
415 0 8 0.1481 6.1779276 2.0864948 27.08705219999998 0 0 0
416 0 9 0.1481 7.603472499999997 1.7653648999999998 27.6545516 0 0 0
430 0 4 -0.191 6.781787739999999 2.23414659 30.796187499999995 0 0 0
431 0 6 0.1536 6.0980699 2.0779993 30.1862106 0 0 0
433 0 2 -0.28 7.95722512 1.53377757 30.87638502 0 0 0
464 0 4 -0.191 2.23414659 6.781787739999999 30.796187499999995 0 0 0
465 0 6 0.1536 2.0779993 6.0980699 30.1862106 0 0 0
467 0 2 -0.28 1.53377757 7.95722512 30.87638502 0 0 0
492 0 4 -0.191 2.23414659 3.1858125 27.200212259999986 0 0 0
493 0 6 0.1536 2.0779993 3.7957894 27.8839301 0 0 0
498 0 2 -0.28 1.53377757 3.10561498 26.02477488 0 0 0
499 0 4 -0.191 3.1858125 2.23414659 27.200212259999986 0 0 0
500 0 6 0.1536 3.7957894 2.0779993 27.8839301 0 0 0
501 0 2 -0.28 3.10561498 1.53377757 26.02477488 0 0 0
517 0 4 -0.191 6.781787739999999 3.1858125 31.74785341 0 0 0
518 0 6 0.1536 6.0980699 3.7957894 31.904000699999997 0 0 0
522 0 2 -0.28 7.95722512 3.10561498 32.44822243 0 0 0
538 0 4 -0.191 3.1858125 6.781787739999999 31.74785341 0 0 0
539 0 6 0.1536 3.7957894 6.0980699 31.904000699999997 0 0 0
543 0 2 -0.28 3.10561498 7.95722512 32.44822243 0 0 0
282 0 1 0.6894 8.4955 0 29.73425 0 0 0
290 0 4 -0.191 10.72964659 1.71371226 28.6723125 0 0 0
291 0 6 0.1536 10.5734993 2.3974300999999985 29.2822894 0 0 0
296 0 2 -0.28 10.02927757 0.53827488 28.59211498 0 0 0
326 0 4 -0.191 15.27728774 6.26135341 28.6723125 0 0 0
327 0 6 0.1536 14.5935699 6.4175007 29.2822894 0 0 0
332 0 2 -0.28 16.45272512 6.96172243 28.59211498 0 0 0
334 0 4 -0.191 11.6813125 6.26135341 32.26828774 0 0 0
335 0 6 0.1536 12.2912894 6.4175007 31.58456989999999 0 0 0
337 0 2 -0.28 11.60111498 6.96172243 33.44372512 0 0 0
366 0 4 -0.191 10.72964659 5.3096875 32.26828774 0 0 0
367 0 6 0.1536 10.5734993 4.6997106 31.58456989999999 0 0 0
371 0 2 -0.28 10.02927757 5.38988502 33.44372512 0 0 0
388 0 4 -0.191 15.27728774 5.3096875 27.72064659 0 0 0
389 0 6 0.1536 14.5935699 4.6997106 27.5644993 0 0 0
390 0 2 -0.28 16.45272512 5.38988502 27.02027757 0 0 0
408 0 1 0.6894 12.74325 0 25.4865 0 0 0
418 0 4 -0.191 11.6813125 1.71371226 27.72064659 0 0 0
419 0 6 0.1536 12.2912894 2.3974300999999985 27.5644993 0 0 0
420 0 2 -0.28 11.60111498 0.53827488 27.02027757 0 0 0
429 0 3 0.4184 8.6297289 2.08904345 31.89295655 0 0 0
432 0 5 -0.5726 9.948230499999994 1.5954549 32.3865451 0 0 0
450 0 3 0.4184 14.90195655 8.3612711 31.89295655 0 0 0
453 0 5 -0.5726 15.3955451 7.0427695 32.3865451 0 0 0
454 0 7 0.1481 16.2892717 7.1396182 32.7195687 0 0 0
455 0 8 0.1481 15.3904478 6.409005199999999 31.6644276 0 0 0
456 0 9 0.1481 14.8229484 6.7301351 33.0899725 0 0 0
486 0 3 0.4184 14.90195655 2.08904345 25.6207289 0 0 0
489 0 5 -0.5726 15.3955451 1.5954549 26.939230499999997 0 0 0
513 0 7 0.1481 16.2892717 1.2624313 26.8423818 0 0 0
514 0 8 0.1481 15.3904478 2.3175724 27.5729948 0 0 0
515 0 9 0.1481 14.8229484 0.8920275 27.2518649 0 0 0
519 0 7 0.1481 9.851381799999993 1.2624313 33.2802717 0 0 0
520 0 8 0.1481 10.5819948 2.3175724 32.3814478 0 0 0
521 0 9 0.1481 10.2608649 0.8920275 31.8139484 0 0 0
1381 0 3 0.4184 23.39745655 0.1342289 27.57554345 0 0 0
1384 0 5 -0.5726 23.8910451 1.4527305 27.08195489999999 0 0 0
1429 0 3 0.4184 17.1252289 6.40645655 27.57554345 0 0 0
1432 0 5 -0.5726 18.4437305 6.900045099999998 27.08195489999999 0 0 0
1433 0 7 0.1481 18.3468818 7.7937717 26.74893129999999 0 0 0
1434 0 8 0.1481 19.0774948 6.8949478 27.804072399999985 0 0 0
1435 0 9 0.1481 18.7563649 6.327448399999999 26.3785275 0 0 0
1443 0 3 0.4184 23.39745655 6.40645655 33.8477711 0 0 0
1446 0 5 -0.5726 23.8910451 6.900045099999998 32.5292695 0 0 0
1447 0 7 0.1481 24.784771699999997 7.2330687 32.6261182 0 0 0
1448 0 8 0.1481 23.885947799999983 6.1779276 31.8955052 0 0 0
1449 0 9 0.1481 23.3184484 7.603472499999997 32.2166351 0 0 0
1495 0 1 0.6894 16.991 4.24775 25.4865 0 0 0
1502 0 1 0.6894 21.23875 0 25.4865 0 0 0
1518 0 7 0.1481 24.2240687 1.3558818 26.1882283 0 0 0
1519 0 8 0.1481 23.1689276 2.0864948 27.08705219999998 0 0 0
1520 0 9 0.1481 24.59447249999999 1.7653648999999998 27.6545516 0 0 0
1534 0 4 -0.191 23.77278774 2.23414659 30.796187499999995 0 0 0
1535 0 6 0.1536 23.089069899999995 2.0779993 30.1862106 0 0 0
1537 0 2 -0.28 24.94822512 1.53377757 30.87638502 0 0 0
1568 0 4 -0.191 19.22514659 6.781787739999999 30.796187499999995 0 0 0
1569 0 6 0.1536 19.0689993 6.0980699 30.1862106 0 0 0
1571 0 2 -0.28 18.52477757 7.95722512 30.87638502 0 0 0
1596 0 4 -0.191 19.22514659 3.1858125 27.200212259999986 0 0 0
1597 0 6 0.1536 19.0689993 3.7957894 27.8839301 0 0 0
1602 0 2 -0.28 18.52477757 3.10561498 26.02477488 0 0 0
1603 0 4 -0.191 20.1768125 2.23414659 27.200212259999986 0 0 0
1604 0 6 0.1536 20.7867894 2.0779993 27.8839301 0 0 0
1605 0 2 -0.28 20.09661498 1.53377757 26.02477488 0 0 0
1621 0 4 -0.191 23.77278774 3.1858125 31.74785341 0 0 0
1622 0 6 0.1536 23.089069899999995 3.7957894 31.904000699999997 0 0 0
1626 0 2 -0.28 24.94822512 3.10561498 32.44822243 0 0 0
1642 0 4 -0.191 20.1768125 6.781787739999999 31.74785341 0 0 0
1643 0 6 0.1536 20.7867894 6.0980699 31.904000699999997 0 0 0
1647 0 2 -0.28 20.09661498 7.95722512 32.44822243 0 0 0
1386 0 1 0.6894 25.4865 0 29.73425 0 0 0
1394 0 4 -0.191 27.72064659 1.71371226 28.6723125 0 0 0
1395 0 6 0.1536 27.5644993 2.3974300999999985 29.2822894 0 0 0
1400 0 2 -0.28 27.02027757 0.53827488 28.59211498 0 0 0
1430 0 4 -0.191 32.26828774 6.26135341 28.6723125 0 0 0
1431 0 6 0.1536 31.58456989999999 6.4175007 29.2822894 0 0 0
1436 0 2 -0.28 33.44372512 6.96172243 28.59211498 0 0 0
1438 0 4 -0.191 28.6723125 6.26135341 32.26828774 0 0 0
1439 0 6 0.1536 29.2822894 6.4175007 31.58456989999999 0 0 0
1441 0 2 -0.28 28.59211498 6.96172243 33.44372512 0 0 0
1470 0 4 -0.191 27.72064659 5.3096875 32.26828774 0 0 0
1471 0 6 0.1536 27.5644993 4.6997106 31.58456989999999 0 0 0
1475 0 2 -0.28 27.02027757 5.38988502 33.44372512 0 0 0
1492 0 4 -0.191 32.26828774 5.3096875 27.72064659 0 0 0
1493 0 6 0.1536 31.58456989999999 4.6997106 27.5644993 0 0 0
1494 0 2 -0.28 33.44372512 5.38988502 27.02027757 0 0 0
1512 0 1 0.6894 29.73425 0 25.4865 0 0 0
1522 0 4 -0.191 28.6723125 1.71371226 27.72064659 0 0 0
1523 0 6 0.1536 29.2822894 2.3974300999999985 27.5644993 0 0 0
1524 0 2 -0.28 28.59211498 0.53827488 27.02027757 0 0 0
1533 0 3 0.4184 25.6207289 2.08904345 31.89295655 0 0 0
1536 0 5 -0.5726 26.939230499999997 1.5954549 32.3865451 0 0 0
1554 0 3 0.4184 31.89295655 8.3612711 31.89295655 0 0 0
1557 0 5 -0.5726 32.3865451 7.0427695 32.3865451 0 0 0
1558 0 7 0.1481 33.2802717 7.1396182 32.7195687 0 0 0
1559 0 8 0.1481 32.3814478 6.409005199999999 31.6644276 0 0 0
1560 0 9 0.1481 31.8139484 6.7301351 33.0899725 0 0 0
1590 0 3 0.4184 31.89295655 2.08904345 25.6207289 0 0 0
1593 0 5 -0.5726 32.3865451 1.5954549 26.939230499999997 0 0 0
1617 0 7 0.1481 33.2802717 1.2624313 26.8423818 0 0 0
1618 0 8 0.1481 32.3814478 2.3175724 27.5729948 0 0 0
1619 0 9 0.1481 31.8139484 0.8920275 27.2518649 0 0 0
1623 0 7 0.1481 26.8423818 1.2624313 33.2802717 0 0 0
1624 0 8 0.1481 27.5729948 2.3175724 32.3814478 0 0 0
1625 0 9 0.1481 27.2518649 0.8920275 31.8139484 0 0 0
278 0 4 -0.191 6.26135341 15.27728774 28.6723125 0 0 0
279 0 6 0.1536 6.4175007 14.5935699 29.2822894 0 0 0
281 0 2 -0.28 6.96172243 16.45272512 28.59211498 0 0 0
312 0 4 -0.191 1.71371226 10.72964659 28.6723125 0 0 0
313 0 6 0.1536 2.3974300999999985 10.5734993 29.2822894 0 0 0
315 0 2 -0.28 0.53827488 10.02927757 28.59211498 0 0 0
316 0 1 0.6894 0 8.4955 29.73425 0 0 0
349 0 4 -0.191 5.3096875 10.72964659 32.26828774 0 0 0
350 0 6 0.1536 4.6997106 10.5734993 31.58456989999999 0 0 0
352 0 2 -0.28 5.38988502 10.02927757 33.44372512 0 0 0
375 0 4 -0.191 6.26135341 11.6813125 32.26828774 0 0 0
376 0 6 0.1536 6.4175007 12.2912894 31.58456989999999 0 0 0
380 0 2 -0.28 6.96172243 11.60111498 33.44372512 0 0 0
387 0 1 0.6894 0 12.74325 25.4865 0 0 0
399 0 4 -0.191 1.71371226 11.6813125 27.72064659 0 0 0
400 0 6 0.1536 2.3974300999999985 12.2912894 27.5644993 0 0 0
404 0 2 -0.28 0.53827488 11.60111498 27.02027757 0 0 0
412 0 4 -0.191 5.3096875 15.27728774 27.72064659 0 0 0
413 0 6 0.1536 4.6997106 14.5935699 27.5644993 0 0 0
417 0 2 -0.28 5.38988502 16.45272512 27.02027757 0 0 0
442 0 3 0.4184 8.3612711 14.90195655 31.89295655 0 0 0
445 0 5 -0.5726 7.0427695 15.3955451 32.3865451 0 0 0
446 0 7 0.1481 7.1396182 16.2892717 32.7195687 0 0 0
447 0 8 0.1481 6.409005199999999 15.3904478 31.6644276 0 0 0
448 0 9 0.1481 6.7301351 14.8229484 33.0899725 0 0 0
463 0 3 0.4184 2.08904345 8.6297289 31.89295655 0 0 0
466 0 5 -0.5726 1.5954549 9.948230499999994 32.3865451 0 0 0
473 0 3 0.4184 2.08904345 14.90195655 25.6207289 0 0 0
476 0 5 -0.5726 1.5954549 15.3955451 26.939230499999997 0 0 0
504 0 7 0.1481 0.7017283 15.728568699999993 26.8423818 0 0 0
505 0 8 0.1481 1.6005522 14.6734276 27.5729948 0 0 0
506 0 9 0.1481 2.168051599999999 16.0989725 27.2518649 0 0 0
540 0 7 0.1481 1.2624313 9.851381799999993 33.2802717 0 0 0
541 0 8 0.1481 2.3175724 10.5819948 32.3814478 0 0 0
542 0 9 0.1481 0.8920275 10.2608649 31.8139484 0 0 0
289 0 3 0.4184 10.58454345 16.8567711 27.57554345 0 0 0
292 0 5 -0.5726 10.0909549 15.5382695 27.08195489999999 0 0 0
293 0 7 0.1481 9.197228299999994 15.6351182 26.74893129999999 0 0 0
294 0 8 0.1481 10.0960522 14.9045052 27.804072399999985 0 0 0
295 0 9 0.1481 10.663551599999998 15.2256351 26.3785275 0 0 0
311 0 3 0.4184 16.8567711 10.58454345 27.57554345 0 0 0
314 0 5 -0.5726 15.5382695 10.0909549 27.08195489999999 0 0 0
354 0 3 0.4184 10.58454345 10.58454345 33.8477711 0 0 0
357 0 5 -0.5726 10.0909549 10.0909549 32.5292695 0 0 0
358 0 7 0.1481 9.197228299999994 9.7579313 32.6261182 0 0 0
359 0 8 0.1481 10.0960522 10.8130724 31.8955052 0 0 0
360 0 9 0.1481 10.663551599999998 9.3875275 32.2166351 0 0 0
401 0 7 0.1481 15.6351182 9.7579313 26.1882283 0 0 0
402 0 8 0.1481 14.9045052 10.8130724 27.08705219999998 0 0 0
403 0 9 0.1481 15.2256351 9.3875275 27.6545516 0 0 0
443 0 4 -0.191 10.20921226 14.75685341 30.796187499999995 0 0 0
444 0 6 0.1536 10.892930099999997 14.913000699999992 30.1862106 0 0 0
449 0 2 -0.28 9.03377488 15.457222429999998 30.87638502 0 0 0
451 0 4 -0.191 14.75685341 10.20921226 30.796187499999995 0 0 0
452 0 6 0.1536 14.913000699999992 10.892930099999997 30.1862106 0 0 0
457 0 2 -0.28 15.457222429999998 9.03377488 30.87638502 0 0 0
479 0 4 -0.191 14.75685341 13.805187499999992 27.200212259999986 0 0 0
480 0 6 0.1536 14.913000699999992 13.1952106 27.8839301 0 0 0
485 0 2 -0.28 15.457222429999998 13.88538502 26.02477488 0 0 0
508 0 4 -0.191 13.805187499999992 14.75685341 27.200212259999986 0 0 0
509 0 6 0.1536 13.1952106 14.913000699999992 27.8839301 0 0 0
510 0 2 -0.28 13.88538502 15.457222429999998 26.02477488 0 0 0
529 0 4 -0.191 13.805187499999992 10.20921226 31.74785341 0 0 0
530 0 6 0.1536 13.1952106 10.892930099999997 31.904000699999997 0 0 0
531 0 2 -0.28 13.88538502 9.03377488 32.44822243 0 0 0
544 0 4 -0.191 10.20921226 13.805187499999992 31.74785341 0 0 0
545 0 6 0.1536 10.892930099999997 13.1952106 31.904000699999997 0 0 0
546 0 2 -0.28 9.03377488 13.88538502 32.44822243 0 0 0
1382 0 4 -0.191 23.25235341 15.27728774 28.6723125 0 0 0
1383 0 6 0.1536 23.4085007 14.5935699 29.2822894 0 0 0
1385 0 2 -0.28 23.95272243 16.45272512 28.59211498 0 0 0
1416 0 4 -0.191 18.70471225999999 10.72964659 28.6723125 0 0 0
1417 0 6 0.1536 19.3884301 10.5734993 29.2822894 0 0 0
1419 0 2 -0.28 17.52927488 10.02927757 28.59211498 0 0 0
1420 0 1 0.6894 16.991 8.4955 29.73425 0 0 0
1453 0 4 -0.191 22.3006875 10.72964659 32.26828774 0 0 0
1454 0 6 0.1536 21.6907106 10.5734993 31.58456989999999 0 0 0
1456 0 2 -0.28 22.38088502 10.02927757 33.44372512 0 0 0
1479 0 4 -0.191 23.25235341 11.6813125 32.26828774 0 0 0
1480 0 6 0.1536 23.4085007 12.2912894 31.58456989999999 0 0 0
1484 0 2 -0.28 23.95272243 11.60111498 33.44372512 0 0 0
1491 0 1 0.6894 16.991 12.74325 25.4865 0 0 0
1503 0 4 -0.191 18.70471225999999 11.6813125 27.72064659 0 0 0
1504 0 6 0.1536 19.3884301 12.2912894 27.5644993 0 0 0
1508 0 2 -0.28 17.52927488 11.60111498 27.02027757 0 0 0
1516 0 4 -0.191 22.3006875 15.27728774 27.72064659 0 0 0
1517 0 6 0.1536 21.6907106 14.5935699 27.5644993 0 0 0
1521 0 2 -0.28 22.38088502 16.45272512 27.02027757 0 0 0
1546 0 3 0.4184 25.3522711 14.90195655 31.89295655 0 0 0
1549 0 5 -0.5726 24.0337695 15.3955451 32.3865451 0 0 0
1550 0 7 0.1481 24.1306182 16.2892717 32.7195687 0 0 0
1551 0 8 0.1481 23.4000052 15.3904478 31.6644276 0 0 0
1552 0 9 0.1481 23.7211351 14.8229484 33.0899725 0 0 0
1567 0 3 0.4184 19.08004345 8.6297289 31.89295655 0 0 0
1570 0 5 -0.5726 18.586454899999993 9.948230499999994 32.3865451 0 0 0
1577 0 3 0.4184 19.08004345 14.90195655 25.6207289 0 0 0
1580 0 5 -0.5726 18.586454899999993 15.3955451 26.939230499999997 0 0 0
1608 0 7 0.1481 17.6927283 15.728568699999993 26.8423818 0 0 0
1609 0 8 0.1481 18.591552199999988 14.6734276 27.5729948 0 0 0
1610 0 9 0.1481 19.1590516 16.0989725 27.2518649 0 0 0
1644 0 7 0.1481 18.2534313 9.851381799999993 33.2802717 0 0 0
1645 0 8 0.1481 19.30857239999999 10.5819948 32.3814478 0 0 0
1646 0 9 0.1481 17.8830275 10.2608649 31.8139484 0 0 0
1393 0 3 0.4184 27.57554345 16.8567711 27.57554345 0 0 0
1396 0 5 -0.5726 27.08195489999999 15.5382695 27.08195489999999 0 0 0
1397 0 7 0.1481 26.1882283 15.6351182 26.74893129999999 0 0 0
1398 0 8 0.1481 27.08705219999998 14.9045052 27.804072399999985 0 0 0
1399 0 9 0.1481 27.6545516 15.2256351 26.3785275 0 0 0
1415 0 3 0.4184 33.8477711 10.58454345 27.57554345 0 0 0
1418 0 5 -0.5726 32.5292695 10.0909549 27.08195489999999 0 0 0
1458 0 3 0.4184 27.57554345 10.58454345 33.8477711 0 0 0
1461 0 5 -0.5726 27.08195489999999 10.0909549 32.5292695 0 0 0
1462 0 7 0.1481 26.1882283 9.7579313 32.6261182 0 0 0
1463 0 8 0.1481 27.08705219999998 10.8130724 31.8955052 0 0 0
1464 0 9 0.1481 27.6545516 9.3875275 32.2166351 0 0 0
1505 0 7 0.1481 32.6261182 9.7579313 26.1882283 0 0 0
1506 0 8 0.1481 31.8955052 10.8130724 27.08705219999998 0 0 0
1507 0 9 0.1481 32.2166351 9.3875275 27.6545516 0 0 0
1547 0 4 -0.191 27.200212259999986 14.75685341 30.796187499999995 0 0 0
1548 0 6 0.1536 27.8839301 14.913000699999992 30.1862106 0 0 0
1553 0 2 -0.28 26.02477488 15.457222429999998 30.87638502 0 0 0
1555 0 4 -0.191 31.74785341 10.20921226 30.796187499999995 0 0 0
1556 0 6 0.1536 31.904000699999997 10.892930099999997 30.1862106 0 0 0
1561 0 2 -0.28 32.44822243 9.03377488 30.87638502 0 0 0
1583 0 4 -0.191 31.74785341 13.805187499999992 27.200212259999986 0 0 0
1584 0 6 0.1536 31.904000699999997 13.1952106 27.8839301 0 0 0
1589 0 2 -0.28 32.44822243 13.88538502 26.02477488 0 0 0
1612 0 4 -0.191 30.796187499999995 14.75685341 27.200212259999986 0 0 0
1613 0 6 0.1536 30.1862106 14.913000699999992 27.8839301 0 0 0
1614 0 2 -0.28 30.87638502 15.457222429999998 26.02477488 0 0 0
1633 0 4 -0.191 30.796187499999995 10.20921226 31.74785341 0 0 0
1634 0 6 0.1536 30.1862106 10.892930099999997 31.904000699999997 0 0 0
1635 0 2 -0.28 30.87638502 9.03377488 32.44822243 0 0 0
1648 0 4 -0.191 27.200212259999986 13.805187499999992 31.74785341 0 0 0
1649 0 6 0.1536 27.8839301 13.1952106 31.904000699999997 0 0 0
1650 0 2 -0.28 26.02477488 13.88538502 32.44822243 0 0 0
829 0 3 0.4184 6.40645655 17.1252289 27.57554345 0 0 0
832 0 5 -0.5726 6.900045099999998 18.4437305 27.08195489999999 0 0 0
877 0 3 0.4184 0.1342289 23.39745655 27.57554345 0 0 0
880 0 5 -0.5726 1.4527305 23.8910451 27.08195489999999 0 0 0
881 0 7 0.1481 1.3558818 24.784771699999997 26.74893129999999 0 0 0
882 0 8 0.1481 2.0864948 23.885947799999983 27.804072399999985 0 0 0
883 0 9 0.1481 1.7653648999999998 23.3184484 26.3785275 0 0 0
891 0 3 0.4184 6.40645655 23.39745655 33.8477711 0 0 0
894 0 5 -0.5726 6.900045099999998 23.8910451 32.5292695 0 0 0
895 0 7 0.1481 7.7937717 24.2240687 32.6261182 0 0 0
896 0 8 0.1481 6.8949478 23.1689276 31.8955052 0 0 0
897 0 9 0.1481 6.327448399999999 24.59447249999999 32.2166351 0 0 0
943 0 1 0.6894 0 21.23875 25.4865 0 0 0
950 0 1 0.6894 4.24775 16.991 25.4865 0 0 0
966 0 7 0.1481 7.2330687 18.3468818 26.1882283 0 0 0
967 0 8 0.1481 6.1779276 19.0774948 27.08705219999998 0 0 0
968 0 9 0.1481 7.603472499999997 18.7563649 27.6545516 0 0 0
982 0 4 -0.191 6.781787739999999 19.22514659 30.796187499999995 0 0 0
983 0 6 0.1536 6.0980699 19.0689993 30.1862106 0 0 0
985 0 2 -0.28 7.95722512 18.52477757 30.87638502 0 0 0
1016 0 4 -0.191 2.23414659 23.77278774 30.796187499999995 0 0 0
1017 0 6 0.1536 2.0779993 23.089069899999995 30.1862106 0 0 0
1019 0 2 -0.28 1.53377757 24.94822512 30.87638502 0 0 0
1044 0 4 -0.191 2.23414659 20.1768125 27.200212259999986 0 0 0
1045 0 6 0.1536 2.0779993 20.7867894 27.8839301 0 0 0
1050 0 2 -0.28 1.53377757 20.09661498 26.02477488 0 0 0
1051 0 4 -0.191 3.1858125 19.22514659 27.200212259999986 0 0 0
1052 0 6 0.1536 3.7957894 19.0689993 27.8839301 0 0 0
1053 0 2 -0.28 3.10561498 18.52477757 26.02477488 0 0 0
1069 0 4 -0.191 6.781787739999999 20.1768125 31.74785341 0 0 0
1070 0 6 0.1536 6.0980699 20.7867894 31.904000699999997 0 0 0
1074 0 2 -0.28 7.95722512 20.09661498 32.44822243 0 0 0
1090 0 4 -0.191 3.1858125 23.77278774 31.74785341 0 0 0
1091 0 6 0.1536 3.7957894 23.089069899999995 31.904000699999997 0 0 0
1095 0 2 -0.28 3.10561498 24.94822512 32.44822243 0 0 0
834 0 1 0.6894 8.4955 16.991 29.73425 0 0 0
842 0 4 -0.191 10.72964659 18.70471225999999 28.6723125 0 0 0
843 0 6 0.1536 10.5734993 19.3884301 29.2822894 0 0 0
848 0 2 -0.28 10.02927757 17.52927488 28.59211498 0 0 0
878 0 4 -0.191 15.27728774 23.25235341 28.6723125 0 0 0
879 0 6 0.1536 14.5935699 23.4085007 29.2822894 0 0 0
884 0 2 -0.28 16.45272512 23.95272243 28.59211498 0 0 0
886 0 4 -0.191 11.6813125 23.25235341 32.26828774 0 0 0
887 0 6 0.1536 12.2912894 23.4085007 31.58456989999999 0 0 0
889 0 2 -0.28 11.60111498 23.95272243 33.44372512 0 0 0
918 0 4 -0.191 10.72964659 22.3006875 32.26828774 0 0 0
919 0 6 0.1536 10.5734993 21.6907106 31.58456989999999 0 0 0
923 0 2 -0.28 10.02927757 22.38088502 33.44372512 0 0 0
940 0 4 -0.191 15.27728774 22.3006875 27.72064659 0 0 0
941 0 6 0.1536 14.5935699 21.6907106 27.5644993 0 0 0
942 0 2 -0.28 16.45272512 22.38088502 27.02027757 0 0 0
960 0 1 0.6894 12.74325 16.991 25.4865 0 0 0
970 0 4 -0.191 11.6813125 18.70471225999999 27.72064659 0 0 0
971 0 6 0.1536 12.2912894 19.3884301 27.5644993 0 0 0
972 0 2 -0.28 11.60111498 17.52927488 27.02027757 0 0 0
981 0 3 0.4184 8.6297289 19.08004345 31.89295655 0 0 0
984 0 5 -0.5726 9.948230499999994 18.586454899999993 32.3865451 0 0 0
1002 0 3 0.4184 14.90195655 25.3522711 31.89295655 0 0 0
1005 0 5 -0.5726 15.3955451 24.0337695 32.3865451 0 0 0
1006 0 7 0.1481 16.2892717 24.1306182 32.7195687 0 0 0
1007 0 8 0.1481 15.3904478 23.4000052 31.6644276 0 0 0
1008 0 9 0.1481 14.8229484 23.7211351 33.0899725 0 0 0
1038 0 3 0.4184 14.90195655 19.08004345 25.6207289 0 0 0
1041 0 5 -0.5726 15.3955451 18.586454899999993 26.939230499999997 0 0 0
1065 0 7 0.1481 16.2892717 18.2534313 26.8423818 0 0 0
1066 0 8 0.1481 15.3904478 19.30857239999999 27.5729948 0 0 0
1067 0 9 0.1481 14.8229484 17.8830275 27.2518649 0 0 0
1071 0 7 0.1481 9.851381799999993 18.2534313 33.2802717 0 0 0
1072 0 8 0.1481 10.5819948 19.30857239999999 32.3814478 0 0 0
1073 0 9 0.1481 10.2608649 17.8830275 31.8139484 0 0 0
1933 0 3 0.4184 23.39745655 17.1252289 27.57554345 0 0 0
1936 0 5 -0.5726 23.8910451 18.4437305 27.08195489999999 0 0 0
1981 0 3 0.4184 17.1252289 23.39745655 27.57554345 0 0 0
1984 0 5 -0.5726 18.4437305 23.8910451 27.08195489999999 0 0 0
1985 0 7 0.1481 18.3468818 24.784771699999997 26.74893129999999 0 0 0
1986 0 8 0.1481 19.0774948 23.885947799999983 27.804072399999985 0 0 0
1987 0 9 0.1481 18.7563649 23.3184484 26.3785275 0 0 0
1995 0 3 0.4184 23.39745655 23.39745655 33.8477711 0 0 0
1998 0 5 -0.5726 23.8910451 23.8910451 32.5292695 0 0 0
1999 0 7 0.1481 24.784771699999997 24.2240687 32.6261182 0 0 0
2000 0 8 0.1481 23.885947799999983 23.1689276 31.8955052 0 0 0
2001 0 9 0.1481 23.3184484 24.59447249999999 32.2166351 0 0 0
2047 0 1 0.6894 16.991 21.23875 25.4865 0 0 0
2054 0 1 0.6894 21.23875 16.991 25.4865 0 0 0
2070 0 7 0.1481 24.2240687 18.3468818 26.1882283 0 0 0
2071 0 8 0.1481 23.1689276 19.0774948 27.08705219999998 0 0 0
2072 0 9 0.1481 24.59447249999999 18.7563649 27.6545516 0 0 0
2086 0 4 -0.191 23.77278774 19.22514659 30.796187499999995 0 0 0
2087 0 6 0.1536 23.089069899999995 19.0689993 30.1862106 0 0 0
2089 0 2 -0.28 24.94822512 18.52477757 30.87638502 0 0 0
2120 0 4 -0.191 19.22514659 23.77278774 30.796187499999995 0 0 0
2121 0 6 0.1536 19.0689993 23.089069899999995 30.1862106 0 0 0
2123 0 2 -0.28 18.52477757 24.94822512 30.87638502 0 0 0
2148 0 4 -0.191 19.22514659 20.1768125 27.200212259999986 0 0 0
2149 0 6 0.1536 19.0689993 20.7867894 27.8839301 0 0 0
2154 0 2 -0.28 18.52477757 20.09661498 26.02477488 0 0 0
2155 0 4 -0.191 20.1768125 19.22514659 27.200212259999986 0 0 0
2156 0 6 0.1536 20.7867894 19.0689993 27.8839301 0 0 0
2157 0 2 -0.28 20.09661498 18.52477757 26.02477488 0 0 0
2173 0 4 -0.191 23.77278774 20.1768125 31.74785341 0 0 0
2174 0 6 0.1536 23.089069899999995 20.7867894 31.904000699999997 0 0 0
2178 0 2 -0.28 24.94822512 20.09661498 32.44822243 0 0 0
2194 0 4 -0.191 20.1768125 23.77278774 31.74785341 0 0 0
2195 0 6 0.1536 20.7867894 23.089069899999995 31.904000699999997 0 0 0
2199 0 2 -0.28 20.09661498 24.94822512 32.44822243 0 0 0
1938 0 1 0.6894 25.4865 16.991 29.73425 0 0 0
1946 0 4 -0.191 27.72064659 18.70471225999999 28.6723125 0 0 0
1947 0 6 0.1536 27.5644993 19.3884301 29.2822894 0 0 0
1952 0 2 -0.28 27.02027757 17.52927488 28.59211498 0 0 0
1982 0 4 -0.191 32.26828774 23.25235341 28.6723125 0 0 0
1983 0 6 0.1536 31.58456989999999 23.4085007 29.2822894 0 0 0
1988 0 2 -0.28 33.44372512 23.95272243 28.59211498 0 0 0
1990 0 4 -0.191 28.6723125 23.25235341 32.26828774 0 0 0
1991 0 6 0.1536 29.2822894 23.4085007 31.58456989999999 0 0 0
1993 0 2 -0.28 28.59211498 23.95272243 33.44372512 0 0 0
2022 0 4 -0.191 27.72064659 22.3006875 32.26828774 0 0 0
2023 0 6 0.1536 27.5644993 21.6907106 31.58456989999999 0 0 0
2027 0 2 -0.28 27.02027757 22.38088502 33.44372512 0 0 0
2044 0 4 -0.191 32.26828774 22.3006875 27.72064659 0 0 0
2045 0 6 0.1536 31.58456989999999 21.6907106 27.5644993 0 0 0
2046 0 2 -0.28 33.44372512 22.38088502 27.02027757 0 0 0
2064 0 1 0.6894 29.73425 16.991 25.4865 0 0 0
2074 0 4 -0.191 28.6723125 18.70471225999999 27.72064659 0 0 0
2075 0 6 0.1536 29.2822894 19.3884301 27.5644993 0 0 0
2076 0 2 -0.28 28.59211498 17.52927488 27.02027757 0 0 0
2085 0 3 0.4184 25.6207289 19.08004345 31.89295655 0 0 0
2088 0 5 -0.5726 26.939230499999997 18.586454899999993 32.3865451 0 0 0
2106 0 3 0.4184 31.89295655 25.3522711 31.89295655 0 0 0
2109 0 5 -0.5726 32.3865451 24.0337695 32.3865451 0 0 0
2110 0 7 0.1481 33.2802717 24.1306182 32.7195687 0 0 0
2111 0 8 0.1481 32.3814478 23.4000052 31.6644276 0 0 0
2112 0 9 0.1481 31.8139484 23.7211351 33.0899725 0 0 0
2142 0 3 0.4184 31.89295655 19.08004345 25.6207289 0 0 0
2145 0 5 -0.5726 32.3865451 18.586454899999993 26.939230499999997 0 0 0
2169 0 7 0.1481 33.2802717 18.2534313 26.8423818 0 0 0
2170 0 8 0.1481 32.3814478 19.30857239999999 27.5729948 0 0 0
2171 0 9 0.1481 31.8139484 17.8830275 27.2518649 0 0 0
2175 0 7 0.1481 26.8423818 18.2534313 33.2802717 0 0 0
2176 0 8 0.1481 27.5729948 19.30857239999999 32.3814478 0 0 0
2177 0 9 0.1481 27.2518649 17.8830275 31.8139484 0 0 0
830 0 4 -0.191 6.26135341 32.26828774 28.6723125 0 0 0
831 0 6 0.1536 6.4175007 31.58456989999999 29.2822894 0 0 0
833 0 2 -0.28 6.96172243 33.44372512 28.59211498 0 0 0
864 0 4 -0.191 1.71371226 27.72064659 28.6723125 0 0 0
865 0 6 0.1536 2.3974300999999985 27.5644993 29.2822894 0 0 0
867 0 2 -0.28 0.53827488 27.02027757 28.59211498 0 0 0
868 0 1 0.6894 0 25.4865 29.73425 0 0 0
901 0 4 -0.191 5.3096875 27.72064659 32.26828774 0 0 0
902 0 6 0.1536 4.6997106 27.5644993 31.58456989999999 0 0 0
904 0 2 -0.28 5.38988502 27.02027757 33.44372512 0 0 0
927 0 4 -0.191 6.26135341 28.6723125 32.26828774 0 0 0
928 0 6 0.1536 6.4175007 29.2822894 31.58456989999999 0 0 0
932 0 2 -0.28 6.96172243 28.59211498 33.44372512 0 0 0
939 0 1 0.6894 0 29.73425 25.4865 0 0 0
951 0 4 -0.191 1.71371226 28.6723125 27.72064659 0 0 0
952 0 6 0.1536 2.3974300999999985 29.2822894 27.5644993 0 0 0
956 0 2 -0.28 0.53827488 28.59211498 27.02027757 0 0 0
964 0 4 -0.191 5.3096875 32.26828774 27.72064659 0 0 0
965 0 6 0.1536 4.6997106 31.58456989999999 27.5644993 0 0 0
969 0 2 -0.28 5.38988502 33.44372512 27.02027757 0 0 0
994 0 3 0.4184 8.3612711 31.89295655 31.89295655 0 0 0
997 0 5 -0.5726 7.0427695 32.3865451 32.3865451 0 0 0
998 0 7 0.1481 7.1396182 33.2802717 32.7195687 0 0 0
999 0 8 0.1481 6.409005199999999 32.3814478 31.6644276 0 0 0
1000 0 9 0.1481 6.7301351 31.8139484 33.0899725 0 0 0
1015 0 3 0.4184 2.08904345 25.6207289 31.89295655 0 0 0
1018 0 5 -0.5726 1.5954549 26.939230499999997 32.3865451 0 0 0
1025 0 3 0.4184 2.08904345 31.89295655 25.6207289 0 0 0
1028 0 5 -0.5726 1.5954549 32.3865451 26.939230499999997 0 0 0
1056 0 7 0.1481 0.7017283 32.7195687 26.8423818 0 0 0
1057 0 8 0.1481 1.6005522 31.6644276 27.5729948 0 0 0
1058 0 9 0.1481 2.168051599999999 33.0899725 27.2518649 0 0 0
1092 0 7 0.1481 1.2624313 26.8423818 33.2802717 0 0 0
1093 0 8 0.1481 2.3175724 27.5729948 32.3814478 0 0 0
1094 0 9 0.1481 0.8920275 27.2518649 31.8139484 0 0 0
841 0 3 0.4184 10.58454345 33.8477711 27.57554345 0 0 0
844 0 5 -0.5726 10.0909549 32.5292695 27.08195489999999 0 0 0
845 0 7 0.1481 9.197228299999994 32.6261182 26.74893129999999 0 0 0
846 0 8 0.1481 10.0960522 31.8955052 27.804072399999985 0 0 0
847 0 9 0.1481 10.663551599999998 32.2166351 26.3785275 0 0 0
863 0 3 0.4184 16.8567711 27.57554345 27.57554345 0 0 0
866 0 5 -0.5726 15.5382695 27.08195489999999 27.08195489999999 0 0 0
906 0 3 0.4184 10.58454345 27.57554345 33.8477711 0 0 0
909 0 5 -0.5726 10.0909549 27.08195489999999 32.5292695 0 0 0
910 0 7 0.1481 9.197228299999994 26.74893129999999 32.6261182 0 0 0
911 0 8 0.1481 10.0960522 27.804072399999985 31.8955052 0 0 0
912 0 9 0.1481 10.663551599999998 26.3785275 32.2166351 0 0 0
953 0 7 0.1481 15.6351182 26.74893129999999 26.1882283 0 0 0
954 0 8 0.1481 14.9045052 27.804072399999985 27.08705219999998 0 0 0
955 0 9 0.1481 15.2256351 26.3785275 27.6545516 0 0 0
995 0 4 -0.191 10.20921226 31.74785341 30.796187499999995 0 0 0
996 0 6 0.1536 10.892930099999997 31.904000699999997 30.1862106 0 0 0
1001 0 2 -0.28 9.03377488 32.44822243 30.87638502 0 0 0
1003 0 4 -0.191 14.75685341 27.200212259999986 30.796187499999995 0 0 0
1004 0 6 0.1536 14.913000699999992 27.8839301 30.1862106 0 0 0
1009 0 2 -0.28 15.457222429999998 26.02477488 30.87638502 0 0 0
1031 0 4 -0.191 14.75685341 30.796187499999995 27.200212259999986 0 0 0
1032 0 6 0.1536 14.913000699999992 30.1862106 27.8839301 0 0 0
1037 0 2 -0.28 15.457222429999998 30.87638502 26.02477488 0 0 0
1060 0 4 -0.191 13.805187499999992 31.74785341 27.200212259999986 0 0 0
1061 0 6 0.1536 13.1952106 31.904000699999997 27.8839301 0 0 0
1062 0 2 -0.28 13.88538502 32.44822243 26.02477488 0 0 0
1081 0 4 -0.191 13.805187499999992 27.200212259999986 31.74785341 0 0 0
1082 0 6 0.1536 13.1952106 27.8839301 31.904000699999997 0 0 0
1083 0 2 -0.28 13.88538502 26.02477488 32.44822243 0 0 0
1096 0 4 -0.191 10.20921226 30.796187499999995 31.74785341 0 0 0
1097 0 6 0.1536 10.892930099999997 30.1862106 31.904000699999997 0 0 0
1098 0 2 -0.28 9.03377488 30.87638502 32.44822243 0 0 0
1934 0 4 -0.191 23.25235341 32.26828774 28.6723125 0 0 0
1935 0 6 0.1536 23.4085007 31.58456989999999 29.2822894 0 0 0
1937 0 2 -0.28 23.95272243 33.44372512 28.59211498 0 0 0
1968 0 4 -0.191 18.70471225999999 27.72064659 28.6723125 0 0 0
1969 0 6 0.1536 19.3884301 27.5644993 29.2822894 0 0 0
1971 0 2 -0.28 17.52927488 27.02027757 28.59211498 0 0 0
1972 0 1 0.6894 16.991 25.4865 29.73425 0 0 0
2005 0 4 -0.191 22.3006875 27.72064659 32.26828774 0 0 0
2006 0 6 0.1536 21.6907106 27.5644993 31.58456989999999 0 0 0
2008 0 2 -0.28 22.38088502 27.02027757 33.44372512 0 0 0
2031 0 4 -0.191 23.25235341 28.6723125 32.26828774 0 0 0
2032 0 6 0.1536 23.4085007 29.2822894 31.58456989999999 0 0 0
2036 0 2 -0.28 23.95272243 28.59211498 33.44372512 0 0 0
2043 0 1 0.6894 16.991 29.73425 25.4865 0 0 0
2055 0 4 -0.191 18.70471225999999 28.6723125 27.72064659 0 0 0
2056 0 6 0.1536 19.3884301 29.2822894 27.5644993 0 0 0
2060 0 2 -0.28 17.52927488 28.59211498 27.02027757 0 0 0
2068 0 4 -0.191 22.3006875 32.26828774 27.72064659 0 0 0
2069 0 6 0.1536 21.6907106 31.58456989999999 27.5644993 0 0 0
2073 0 2 -0.28 22.38088502 33.44372512 27.02027757 0 0 0
2098 0 3 0.4184 25.3522711 31.89295655 31.89295655 0 0 0
2101 0 5 -0.5726 24.0337695 32.3865451 32.3865451 0 0 0
2102 0 7 0.1481 24.1306182 33.2802717 32.7195687 0 0 0
2103 0 8 0.1481 23.4000052 32.3814478 31.6644276 0 0 0
2104 0 9 0.1481 23.7211351 31.8139484 33.0899725 0 0 0
2119 0 3 0.4184 19.08004345 25.6207289 31.89295655 0 0 0
2122 0 5 -0.5726 18.586454899999993 26.939230499999997 32.3865451 0 0 0
2129 0 3 0.4184 19.08004345 31.89295655 25.6207289 0 0 0
2132 0 5 -0.5726 18.586454899999993 32.3865451 26.939230499999997 0 0 0
2160 0 7 0.1481 17.6927283 32.7195687 26.8423818 0 0 0
2161 0 8 0.1481 18.591552199999988 31.6644276 27.5729948 0 0 0
2162 0 9 0.1481 19.1590516 33.0899725 27.2518649 0 0 0
2196 0 7 0.1481 18.2534313 26.8423818 33.2802717 0 0 0
2197 0 8 0.1481 19.30857239999999 27.5729948 32.3814478 0 0 0
2198 0 9 0.1481 17.8830275 27.2518649 31.8139484 0 0 0
1945 0 3 0.4184 27.57554345 33.8477711 27.57554345 0 0 0
1948 0 5 -0.5726 27.08195489999999 32.5292695 27.08195489999999 0 0 0
1949 0 7 0.1481 26.1882283 32.6261182 26.74893129999999 0 0 0
1950 0 8 0.1481 27.08705219999998 31.8955052 27.804072399999985 0 0 0
1951 0 9 0.1481 27.6545516 32.2166351 26.3785275 0 0 0
1967 0 3 0.4184 33.8477711 27.57554345 27.57554345 0 0 0
1970 0 5 -0.5726 32.5292695 27.08195489999999 27.08195489999999 0 0 0
2010 0 3 0.4184 27.57554345 27.57554345 33.8477711 0 0 0
2013 0 5 -0.5726 27.08195489999999 27.08195489999999 32.5292695 0 0 0
2014 0 7 0.1481 26.1882283 26.74893129999999 32.6261182 0 0 0
2015 0 8 0.1481 27.08705219999998 27.804072399999985 31.8955052 0 0 0
2016 0 9 0.1481 27.6545516 26.3785275 32.2166351 0 0 0
2057 0 7 0.1481 32.6261182 26.74893129999999 26.1882283 0 0 0
2058 0 8 0.1481 31.8955052 27.804072399999985 27.08705219999998 0 0 0
2059 0 9 0.1481 32.2166351 26.3785275 27.6545516 0 0 0
2099 0 4 -0.191 27.200212259999986 31.74785341 30.796187499999995 0 0 0
2100 0 6 0.1536 27.8839301 31.904000699999997 30.1862106 0 0 0
2105 0 2 -0.28 26.02477488 32.44822243 30.87638502 0 0 0
2107 0 4 -0.191 31.74785341 27.200212259999986 30.796187499999995 0 0 0
2108 0 6 0.1536 31.904000699999997 27.8839301 30.1862106 0 0 0
2113 0 2 -0.28 32.44822243 26.02477488 30.87638502 0 0 0
2135 0 4 -0.191 31.74785341 30.796187499999995 27.200212259999986 0 0 0
2136 0 6 0.1536 31.904000699999997 30.1862106 27.8839301 0 0 0
2141 0 2 -0.28 32.44822243 30.87638502 26.02477488 0 0 0
2164 0 4 -0.191 30.796187499999995 31.74785341 27.200212259999986 0 0 0
2165 0 6 0.1536 30.1862106 31.904000699999997 27.8839301 0 0 0
2166 0 2 -0.28 30.87638502 32.44822243 26.02477488 0 0 0
2185 0 4 -0.191 30.796187499999995 27.200212259999986 31.74785341 0 0 0
2186 0 6 0.1536 30.1862106 27.8839301 31.904000699999997 0 0 0
2187 0 2 -0.28 30.87638502 26.02477488 32.44822243 0 0 0
2200 0 4 -0.191 27.200212259999986 30.796187499999995 31.74785341 0 0 0
2201 0 6 0.1536 27.8839301 30.1862106 31.904000699999997 0 0 0
2202 0 2 -0.28 26.02477488 30.87638502 32.44822243 0 0 0

Velocities

22 0 0 0
23 0 0 0
28 0 0 0
30 0 0 0
31 0 0 0
33 0 0 0
64 0 0 0
65 0 0 0
70 0 0 0
96 0 0 0
97 0 0 0
98 0 0 0
116 0 0 0
117 0 0 0
121 0 0 0
133 0 0 0
134 0 0 0
135 0 0 0
158 0 0 0
161 0 0 0
162 0 0 0
163 0 0 0
164 0 0 0
182 0 0 0
185 0 0 0
215 0 0 0
218 0 0 0
219 0 0 0
220 0 0 0
221 0 0 0
258 0 0 0
259 0 0 0
260 0 0 0
21 0 0 0
24 0 0 0
25 0 0 0
26 0 0 0
27 0 0 0
34 0 0 0
41 0 0 0
44 0 0 0
45 0 0 0
46 0 0 0
47 0 0 0
57 0 0 0
60 0 0 0
71 0 0 0
92 0 0 0
93 0 0 0
94 0 0 0
146 0 0 0
147 0 0 0
152 0 0 0
183 0 0 0
184 0 0 0
186 0 0 0
211 0 0 0
212 0 0 0
214 0 0 0
235 0 0 0
236 0 0 0
240 0 0 0
256 0 0 0
257 0 0 0
261 0 0 0
271 0 0 0
272 0 0 0
273 0 0 0
1126 0 0 0
1127 0 0 0
1132 0 0 0
1134 0 0 0
1135 0 0 0
1137 0 0 0
1168 0 0 0
1169 0 0 0
1174 0 0 0
1200 0 0 0
1201 0 0 0
1202 0 0 0
1220 0 0 0
1221 0 0 0
1225 0 0 0
1237 0 0 0
1238 0 0 0
1239 0 0 0
1262 0 0 0
1265 0 0 0
1266 0 0 0
1267 0 0 0
1268 0 0 0
1286 0 0 0
1289 0 0 0
1319 0 0 0
1322 0 0 0
1323 0 0 0
1324 0 0 0
1325 0 0 0
1362 0 0 0
1363 0 0 0
1364 0 0 0
1125 0 0 0
1128 0 0 0
1129 0 0 0
1130 0 0 0
1131 0 0 0
1138 0 0 0
1145 0 0 0
1148 0 0 0
1149 0 0 0
1150 0 0 0
1151 0 0 0
1161 0 0 0
1164 0 0 0
1175 0 0 0
1196 0 0 0
1197 0 0 0
1198 0 0 0
1250 0 0 0
1251 0 0 0
1256 0 0 0
1287 0 0 0
1288 0 0 0
1290 0 0 0
1315 0 0 0
1316 0 0 0
1318 0 0 0
1339 0 0 0
1340 0 0 0
1344 0 0 0
1360 0 0 0
1361 0 0 0
1365 0 0 0
1375 0 0 0
1376 0 0 0
1377 0 0 0
7 0 0 0
10 0 0 0
12 0 0 0
29 0 0 0
32 0 0 0
72 0 0 0
75 0 0 0
77 0 0 0
101 0 0 0
102 0 0 0
103 0 0 0
107 0 0 0
108 0 0 0
109 0 0 0
118 0 0 0
119 0 0 0
120 0 0 0
159 0 0 0
160 0 0 0
165 0 0 0
193 0 0 0
194 0 0 0
196 0 0 0
198 0 0 0
199 0 0 0
201 0 0 0
226 0 0 0
227 0 0 0
231 0 0 0
247 0 0 0
248 0 0 0
252 0 0 0
274 0 0 0
275 0 0 0
276 0 0 0
8 0 0 0
9 0 0 0
11 0 0 0
42 0 0 0
43 0 0 0
48 0 0 0
62 0 0 0
79 0 0 0
80 0 0 0
85 0 0 0
86 0 0 0
87 0 0 0
88 0 0 0
89 0 0 0
105 0 0 0
106 0 0 0
110 0 0 0
129 0 0 0
130 0 0 0
131 0 0 0
145 0 0 0
148 0 0 0
149 0 0 0
150 0 0 0
151 0 0 0
192 0 0 0
195 0 0 0
202 0 0 0
205 0 0 0
206 0 0 0
207 0 0 0
208 0 0 0
249 0 0 0
250 0 0 0
251 0 0 0
1111 0 0 0
1114 0 0 0
1116 0 0 0
1133 0 0 0
1136 0 0 0
1176 0 0 0
1179 0 0 0
1181 0 0 0
1205 0 0 0
1206 0 0 0
1207 0 0 0
1211 0 0 0
1212 0 0 0
1213 0 0 0
1222 0 0 0
1223 0 0 0
1224 0 0 0
1263 0 0 0
1264 0 0 0
1269 0 0 0
1297 0 0 0
1298 0 0 0
1300 0 0 0
1302 0 0 0
1303 0 0 0
1305 0 0 0
1330 0 0 0
1331 0 0 0
1335 0 0 0
1351 0 0 0
1352 0 0 0
1356 0 0 0
1378 0 0 0
1379 0 0 0
1380 0 0 0
1112 0 0 0
1113 0 0 0
1115 0 0 0
1146 0 0 0
1147 0 0 0
1152 0 0 0
1166 0 0 0
1183 0 0 0
1184 0 0 0
1189 0 0 0
1190 0 0 0
1191 0 0 0
1192 0 0 0
1193 0 0 0
1209 0 0 0
1210 0 0 0
1214 0 0 0
1233 0 0 0
1234 0 0 0
1235 0 0 0
1249 0 0 0
1252 0 0 0
1253 0 0 0
1254 0 0 0
1255 0 0 0
1296 0 0 0
1299 0 0 0
1306 0 0 0
1309 0 0 0
1310 0 0 0
1311 0 0 0
1312 0 0 0
1353 0 0 0
1354 0 0 0
1355 0 0 0
574 0 0 0
575 0 0 0
580 0 0 0
582 0 0 0
583 0 0 0
585 0 0 0
616 0 0 0
617 0 0 0
622 0 0 0
648 0 0 0
649 0 0 0
650 0 0 0
668 0 0 0
669 0 0 0
673 0 0 0
685 0 0 0
686 0 0 0
687 0 0 0
710 0 0 0
713 0 0 0
714 0 0 0
715 0 0 0
716 0 0 0
734 0 0 0
737 0 0 0
767 0 0 0
770 0 0 0
771 0 0 0
772 0 0 0
773 0 0 0
810 0 0 0
811 0 0 0
812 0 0 0
573 0 0 0
576 0 0 0
577 0 0 0
578 0 0 0
579 0 0 0
586 0 0 0
593 0 0 0
596 0 0 0
597 0 0 0
598 0 0 0
599 0 0 0
609 0 0 0
612 0 0 0
623 0 0 0
644 0 0 0
645 0 0 0
646 0 0 0
698 0 0 0
699 0 0 0
704 0 0 0
735 0 0 0
736 0 0 0
738 0 0 0
763 0 0 0
764 0 0 0
766 0 0 0
787 0 0 0
788 0 0 0
792 0 0 0
808 0 0 0
809 0 0 0
813 0 0 0
823 0 0 0
824 0 0 0
825 0 0 0
1678 0 0 0
1679 0 0 0
1684 0 0 0
1686 0 0 0
1687 0 0 0
1689 0 0 0
1720 0 0 0
1721 0 0 0
1726 0 0 0
1752 0 0 0
1753 0 0 0
1754 0 0 0
1772 0 0 0
1773 0 0 0
1777 0 0 0
1789 0 0 0
1790 0 0 0
1791 0 0 0
1814 0 0 0
1817 0 0 0
1818 0 0 0
1819 0 0 0
1820 0 0 0
1838 0 0 0
1841 0 0 0
1871 0 0 0
1874 0 0 0
1875 0 0 0
1876 0 0 0
1877 0 0 0
1914 0 0 0
1915 0 0 0
1916 0 0 0
1677 0 0 0
1680 0 0 0
1681 0 0 0
1682 0 0 0
1683 0 0 0
1690 0 0 0
1697 0 0 0
1700 0 0 0
1701 0 0 0
1702 0 0 0
1703 0 0 0
1713 0 0 0
1716 0 0 0
1727 0 0 0
1748 0 0 0
1749 0 0 0
1750 0 0 0
1802 0 0 0
1803 0 0 0
1808 0 0 0
1839 0 0 0
1840 0 0 0
1842 0 0 0
1867 0 0 0
1868 0 0 0
1870 0 0 0
1891 0 0 0
1892 0 0 0
1896 0 0 0
1912 0 0 0
1913 0 0 0
1917 0 0 0
1927 0 0 0
1928 0 0 0
1929 0 0 0
559 0 0 0
562 0 0 0
564 0 0 0
581 0 0 0
584 0 0 0
624 0 0 0
627 0 0 0
629 0 0 0
653 0 0 0
654 0 0 0
655 0 0 0
659 0 0 0
660 0 0 0
661 0 0 0
670 0 0 0
671 0 0 0
672 0 0 0
711 0 0 0
712 0 0 0
717 0 0 0
745 0 0 0
746 0 0 0
748 0 0 0
750 0 0 0
751 0 0 0
753 0 0 0
778 0 0 0
779 0 0 0
783 0 0 0
799 0 0 0
800 0 0 0
804 0 0 0
826 0 0 0
827 0 0 0
828 0 0 0
560 0 0 0
561 0 0 0
563 0 0 0
594 0 0 0
595 0 0 0
600 0 0 0
614 0 0 0
631 0 0 0
632 0 0 0
637 0 0 0
638 0 0 0
639 0 0 0
640 0 0 0
641 0 0 0
657 0 0 0
658 0 0 0
662 0 0 0
681 0 0 0
682 0 0 0
683 0 0 0
697 0 0 0
700 0 0 0
701 0 0 0
702 0 0 0
703 0 0 0
744 0 0 0
747 0 0 0
754 0 0 0
757 0 0 0
758 0 0 0
759 0 0 0
760 0 0 0
801 0 0 0
802 0 0 0
803 0 0 0
1663 0 0 0
1666 0 0 0
1668 0 0 0
1685 0 0 0
1688 0 0 0
1728 0 0 0
1731 0 0 0
1733 0 0 0
1757 0 0 0
1758 0 0 0
1759 0 0 0
1763 0 0 0
1764 0 0 0
1765 0 0 0
1774 0 0 0
1775 0 0 0
1776 0 0 0
1815 0 0 0
1816 0 0 0
1821 0 0 0
1849 0 0 0
1850 0 0 0
1852 0 0 0
1854 0 0 0
1855 0 0 0
1857 0 0 0
1882 0 0 0
1883 0 0 0
1887 0 0 0
1903 0 0 0
1904 0 0 0
1908 0 0 0
1930 0 0 0
1931 0 0 0
1932 0 0 0
1664 0 0 0
1665 0 0 0
1667 0 0 0
1698 0 0 0
1699 0 0 0
1704 0 0 0
1718 0 0 0
1735 0 0 0
1736 0 0 0
1741 0 0 0
1742 0 0 0
1743 0 0 0
1744 0 0 0
1745 0 0 0
1761 0 0 0
1762 0 0 0
1766 0 0 0
1785 0 0 0
1786 0 0 0
1787 0 0 0
1801 0 0 0
1804 0 0 0
1805 0 0 0
1806 0 0 0
1807 0 0 0
1848 0 0 0
1851 0 0 0
1858 0 0 0
1861 0 0 0
1862 0 0 0
1863 0 0 0
1864 0 0 0
1905 0 0 0
1906 0 0 0
1907 0 0 0
1 0 0 0
4 0 0 0
49 0 0 0
52 0 0 0
53 0 0 0
54 0 0 0
55 0 0 0
63 0 0 0
66 0 0 0
67 0 0 0
68 0 0 0
69 0 0 0
115 0 0 0
122 0 0 0
138 0 0 0
139 0 0 0
140 0 0 0
154 0 0 0
155 0 0 0
157 0 0 0
188 0 0 0
189 0 0 0
191 0 0 0
216 0 0 0
217 0 0 0
222 0 0 0
223 0 0 0
224 0 0 0
225 0 0 0
241 0 0 0
242 0 0 0
246 0 0 0
262 0 0 0
263 0 0 0
267 0 0 0
6 0 0 0
14 0 0 0
15 0 0 0
20 0 0 0
50 0 0 0
51 0 0 0
56 0 0 0
58 0 0 0
59 0 0 0
61 0 0 0
90 0 0 0
91 0 0 0
95 0 0 0
112 0 0 0
113 0 0 0
114 0 0 0
132 0 0 0
142 0 0 0
143 0 0 0
144 0 0 0
153 0 0 0
156 0 0 0
174 0 0 0
177 0 0 0
178 0 0 0
179 0 0 0
180 0 0 0
210 0 0 0
213 0 0 0
237 0 0 0
238 0 0 0
239 0 0 0
243 0 0 0
244 0 0 0
245 0 0 0
1105 0 0 0
1108 0 0 0
1153 0 0 0
1156 0 0 0
1157 0 0 0
1158 0 0 0
1159 0 0 0
1167 0 0 0
1170 0 0 0
1171 0 0 0
1172 0 0 0
1173 0 0 0
1219 0 0 0
1226 0 0 0
1242 0 0 0
1243 0 0 0
1244 0 0 0
1258 0 0 0
1259 0 0 0
1261 0 0 0
1292 0 0 0
1293 0 0 0
1295 0 0 0
1320 0 0 0
1321 0 0 0
1326 0 0 0
1327 0 0 0
1328 0 0 0
1329 0 0 0
1345 0 0 0
1346 0 0 0
1350 0 0 0
1366 0 0 0
1367 0 0 0
1371 0 0 0
1110 0 0 0
1118 0 0 0
1119 0 0 0
1124 0 0 0
1154 0 0 0
1155 0 0 0
1160 0 0 0
1162 0 0 0
1163 0 0 0
1165 0 0 0
1194 0 0 0
1195 0 0 0
1199 0 0 0
1216 0 0 0
1217 0 0 0
1218 0 0 0
1236 0 0 0
1246 0 0 0
1247 0 0 0
1248 0 0 0
1257 0 0 0
1260 0 0 0
1278 0 0 0
1281 0 0 0
1282 0 0 0
1283 0 0 0
1284 0 0 0
1314 0 0 0
1317 0 0 0
1341 0 0 0
1342 0 0 0
1343 0 0 0
1347 0 0 0
1348 0 0 0
1349 0 0 0
2 0 0 0
3 0 0 0
5 0 0 0
36 0 0 0
37 0 0 0
39 0 0 0
40 0 0 0
73 0 0 0
74 0 0 0
76 0 0 0
99 0 0 0
100 0 0 0
104 0 0 0
111 0 0 0
123 0 0 0
124 0 0 0
128 0 0 0
136 0 0 0
137 0 0 0
141 0 0 0
166 0 0 0
169 0 0 0
170 0 0 0
171 0 0 0
172 0 0 0
187 0 0 0
190 0 0 0
197 0 0 0
200 0 0 0
228 0 0 0
229 0 0 0
230 0 0 0
264 0 0 0
265 0 0 0
266 0 0 0
13 0 0 0
16 0 0 0
17 0 0 0
18 0 0 0
19 0 0 0
35 0 0 0
38 0 0 0
78 0 0 0
81 0 0 0
82 0 0 0
83 0 0 0
84 0 0 0
125 0 0 0
126 0 0 0
127 0 0 0
167 0 0 0
168 0 0 0
173 0 0 0
175 0 0 0
176 0 0 0
181 0 0 0
203 0 0 0
204 0 0 0
209 0 0 0
232 0 0 0
233 0 0 0
234 0 0 0
253 0 0 0
254 0 0 0
255 0 0 0
268 0 0 0
269 0 0 0
270 0 0 0
1106 0 0 0
1107 0 0 0
1109 0 0 0
1140 0 0 0
1141 0 0 0
1143 0 0 0
1144 0 0 0
1177 0 0 0
1178 0 0 0
1180 0 0 0
1203 0 0 0
1204 0 0 0
1208 0 0 0
1215 0 0 0
1227 0 0 0
1228 0 0 0
1232 0 0 0
1240 0 0 0
1241 0 0 0
1245 0 0 0
1270 0 0 0
1273 0 0 0
1274 0 0 0
1275 0 0 0
1276 0 0 0
1291 0 0 0
1294 0 0 0
1301 0 0 0
1304 0 0 0
1332 0 0 0
1333 0 0 0
1334 0 0 0
1368 0 0 0
1369 0 0 0
1370 0 0 0
1117 0 0 0
1120 0 0 0
1121 0 0 0
1122 0 0 0
1123 0 0 0
1139 0 0 0
1142 0 0 0
1182 0 0 0
1185 0 0 0
1186 0 0 0
1187 0 0 0
1188 0 0 0
1229 0 0 0
1230 0 0 0
1231 0 0 0
1271 0 0 0
1272 0 0 0
1277 0 0 0
1279 0 0 0
1280 0 0 0
1285 0 0 0
1307 0 0 0
1308 0 0 0
1313 0 0 0
1336 0 0 0
1337 0 0 0
1338 0 0 0
1357 0 0 0
1358 0 0 0
1359 0 0 0
1372 0 0 0
1373 0 0 0
1374 0 0 0
553 0 0 0
556 0 0 0
601 0 0 0
604 0 0 0
605 0 0 0
606 0 0 0
607 0 0 0
615 0 0 0
618 0 0 0
619 0 0 0
620 0 0 0
621 0 0 0
667 0 0 0
674 0 0 0
690 0 0 0
691 0 0 0
692 0 0 0
706 0 0 0
707 0 0 0
709 0 0 0
740 0 0 0
741 0 0 0
743 0 0 0
768 0 0 0
769 0 0 0
774 0 0 0
775 0 0 0
776 0 0 0
777 0 0 0
793 0 0 0
794 0 0 0
798 0 0 0
814 0 0 0
815 0 0 0
819 0 0 0
558 0 0 0
566 0 0 0
567 0 0 0
572 0 0 0
602 0 0 0
603 0 0 0
608 0 0 0
610 0 0 0
611 0 0 0
613 0 0 0
642 0 0 0
643 0 0 0
647 0 0 0
664 0 0 0
665 0 0 0
666 0 0 0
684 0 0 0
694 0 0 0
695 0 0 0
696 0 0 0
705 0 0 0
708 0 0 0
726 0 0 0
729 0 0 0
730 0 0 0
731 0 0 0
732 0 0 0
762 0 0 0
765 0 0 0
789 0 0 0
790 0 0 0
791 0 0 0
795 0 0 0
796 0 0 0
797 0 0 0
1657 0 0 0
1660 0 0 0
1705 0 0 0
1708 0 0 0
1709 0 0 0
1710 0 0 0
1711 0 0 0
1719 0 0 0
1722 0 0 0
1723 0 0 0
1724 0 0 0
1725 0 0 0
1771 0 0 0
1778 0 0 0
1794 0 0 0
1795 0 0 0
1796 0 0 0
1810 0 0 0
1811 0 0 0
1813 0 0 0
1844 0 0 0
1845 0 0 0
1847 0 0 0
1872 0 0 0
1873 0 0 0
1878 0 0 0
1879 0 0 0
1880 0 0 0
1881 0 0 0
1897 0 0 0
1898 0 0 0
1902 0 0 0
1918 0 0 0
1919 0 0 0
1923 0 0 0
1662 0 0 0
1670 0 0 0
1671 0 0 0
1676 0 0 0
1706 0 0 0
1707 0 0 0
1712 0 0 0
1714 0 0 0
1715 0 0 0
1717 0 0 0
1746 0 0 0
1747 0 0 0
1751 0 0 0
1768 0 0 0
1769 0 0 0
1770 0 0 0
1788 0 0 0
1798 0 0 0
1799 0 0 0
1800 0 0 0
1809 0 0 0
1812 0 0 0
1830 0 0 0
1833 0 0 0
1834 0 0 0
1835 0 0 0
1836 0 0 0
1866 0 0 0
1869 0 0 0
1893 0 0 0
1894 0 0 0
1895 0 0 0
1899 0 0 0
1900 0 0 0
1901 0 0 0
554 0 0 0
555 0 0 0
557 0 0 0
588 0 0 0
589 0 0 0
591 0 0 0
592 0 0 0
625 0 0 0
626 0 0 0
628 0 0 0
651 0 0 0
652 0 0 0
656 0 0 0
663 0 0 0
675 0 0 0
676 0 0 0
680 0 0 0
688 0 0 0
689 0 0 0
693 0 0 0
718 0 0 0
721 0 0 0
722 0 0 0
723 0 0 0
724 0 0 0
739 0 0 0
742 0 0 0
749 0 0 0
752 0 0 0
780 0 0 0
781 0 0 0
782 0 0 0
816 0 0 0
817 0 0 0
818 0 0 0
565 0 0 0
568 0 0 0
569 0 0 0
570 0 0 0
571 0 0 0
587 0 0 0
590 0 0 0
630 0 0 0
633 0 0 0
634 0 0 0
635 0 0 0
636 0 0 0
677 0 0 0
678 0 0 0
679 0 0 0
719 0 0 0
720 0 0 0
725 0 0 0
727 0 0 0
728 0 0 0
733 0 0 0
755 0 0 0
756 0 0 0
761 0 0 0
784 0 0 0
785 0 0 0
786 0 0 0
805 0 0 0
806 0 0 0
807 0 0 0
820 0 0 0
821 0 0 0
822 0 0 0
1658 0 0 0
1659 0 0 0
1661 0 0 0
1692 0 0 0
1693 0 0 0
1695 0 0 0
1696 0 0 0
1729 0 0 0
1730 0 0 0
1732 0 0 0
1755 0 0 0
1756 0 0 0
1760 0 0 0
1767 0 0 0
1779 0 0 0
1780 0 0 0
1784 0 0 0
1792 0 0 0
1793 0 0 0
1797 0 0 0
1822 0 0 0
1825 0 0 0
1826 0 0 0
1827 0 0 0
1828 0 0 0
1843 0 0 0
1846 0 0 0
1853 0 0 0
1856 0 0 0
1884 0 0 0
1885 0 0 0
1886 0 0 0
1920 0 0 0
1921 0 0 0
1922 0 0 0
1669 0 0 0
1672 0 0 0
1673 0 0 0
1674 0 0 0
1675 0 0 0
1691 0 0 0
1694 0 0 0
1734 0 0 0
1737 0 0 0
1738 0 0 0
1739 0 0 0
1740 0 0 0
1781 0 0 0
1782 0 0 0
1783 0 0 0
1823 0 0 0
1824 0 0 0
1829 0 0 0
1831 0 0 0
1832 0 0 0
1837 0 0 0
1859 0 0 0
1860 0 0 0
1865 0 0 0
1888 0 0 0
1889 0 0 0
1890 0 0 0
1909 0 0 0
1910 0 0 0
1911 0 0 0
1924 0 0 0
1925 0 0 0
1926 0 0 0
298 0 0 0
299 0 0 0
304 0 0 0
306 0 0 0
307 0 0 0
309 0 0 0
340 0 0 0
341 0 0 0
346 0 0 0
372 0 0 0
373 0 0 0
374 0 0 0
392 0 0 0
393 0 0 0
397 0 0 0
409 0 0 0
410 0 0 0
411 0 0 0
434 0 0 0
437 0 0 0
438 0 0 0
439 0 0 0
440 0 0 0
458 0 0 0
461 0 0 0
491 0 0 0
494 0 0 0
495 0 0 0
496 0 0 0
497 0 0 0
534 0 0 0
535 0 0 0
536 0 0 0
297 0 0 0
300 0 0 0
301 0 0 0
302 0 0 0
303 0 0 0
310 0 0 0
317 0 0 0
320 0 0 0
321 0 0 0
322 0 0 0
323 0 0 0
333 0 0 0
336 0 0 0
347 0 0 0
368 0 0 0
369 0 0 0
370 0 0 0
422 0 0 0
423 0 0 0
428 0 0 0
459 0 0 0
460 0 0 0
462 0 0 0
487 0 0 0
488 0 0 0
490 0 0 0
511 0 0 0
512 0 0 0
516 0 0 0
532 0 0 0
533 0 0 0
537 0 0 0
547 0 0 0
548 0 0 0
549 0 0 0
1402 0 0 0
1403 0 0 0
1408 0 0 0
1410 0 0 0
1411 0 0 0
1413 0 0 0
1444 0 0 0
1445 0 0 0
1450 0 0 0
1476 0 0 0
1477 0 0 0
1478 0 0 0
1496 0 0 0
1497 0 0 0
1501 0 0 0
1513 0 0 0
1514 0 0 0
1515 0 0 0
1538 0 0 0
1541 0 0 0
1542 0 0 0
1543 0 0 0
1544 0 0 0
1562 0 0 0
1565 0 0 0
1595 0 0 0
1598 0 0 0
1599 0 0 0
1600 0 0 0
1601 0 0 0
1638 0 0 0
1639 0 0 0
1640 0 0 0
1401 0 0 0
1404 0 0 0
1405 0 0 0
1406 0 0 0
1407 0 0 0
1414 0 0 0
1421 0 0 0
1424 0 0 0
1425 0 0 0
1426 0 0 0
1427 0 0 0
1437 0 0 0
1440 0 0 0
1451 0 0 0
1472 0 0 0
1473 0 0 0
1474 0 0 0
1526 0 0 0
1527 0 0 0
1532 0 0 0
1563 0 0 0
1564 0 0 0
1566 0 0 0
1591 0 0 0
1592 0 0 0
1594 0 0 0
1615 0 0 0
1616 0 0 0
1620 0 0 0
1636 0 0 0
1637 0 0 0
1641 0 0 0
1651 0 0 0
1652 0 0 0
1653 0 0 0
283 0 0 0
286 0 0 0
288 0 0 0
305 0 0 0
308 0 0 0
348 0 0 0
351 0 0 0
353 0 0 0
377 0 0 0
378 0 0 0
379 0 0 0
383 0 0 0
384 0 0 0
385 0 0 0
394 0 0 0
395 0 0 0
396 0 0 0
435 0 0 0
436 0 0 0
441 0 0 0
469 0 0 0
470 0 0 0
472 0 0 0
474 0 0 0
475 0 0 0
477 0 0 0
502 0 0 0
503 0 0 0
507 0 0 0
523 0 0 0
524 0 0 0
528 0 0 0
550 0 0 0
551 0 0 0
552 0 0 0
284 0 0 0
285 0 0 0
287 0 0 0
318 0 0 0
319 0 0 0
324 0 0 0
338 0 0 0
355 0 0 0
356 0 0 0
361 0 0 0
362 0 0 0
363 0 0 0
364 0 0 0
365 0 0 0
381 0 0 0
382 0 0 0
386 0 0 0
405 0 0 0
406 0 0 0
407 0 0 0
421 0 0 0
424 0 0 0
425 0 0 0
426 0 0 0
427 0 0 0
468 0 0 0
471 0 0 0
478 0 0 0
481 0 0 0
482 0 0 0
483 0 0 0
484 0 0 0
525 0 0 0
526 0 0 0
527 0 0 0
1387 0 0 0
1390 0 0 0
1392 0 0 0
1409 0 0 0
1412 0 0 0
1452 0 0 0
1455 0 0 0
1457 0 0 0
1481 0 0 0
1482 0 0 0
1483 0 0 0
1487 0 0 0
1488 0 0 0
1489 0 0 0
1498 0 0 0
1499 0 0 0
1500 0 0 0
1539 0 0 0
1540 0 0 0
1545 0 0 0
1573 0 0 0
1574 0 0 0
1576 0 0 0
1578 0 0 0
1579 0 0 0
1581 0 0 0
1606 0 0 0
1607 0 0 0
1611 0 0 0
1627 0 0 0
1628 0 0 0
1632 0 0 0
1654 0 0 0
1655 0 0 0
1656 0 0 0
1388 0 0 0
1389 0 0 0
1391 0 0 0
1422 0 0 0
1423 0 0 0
1428 0 0 0
1442 0 0 0
1459 0 0 0
1460 0 0 0
1465 0 0 0
1466 0 0 0
1467 0 0 0
1468 0 0 0
1469 0 0 0
1485 0 0 0
1486 0 0 0
1490 0 0 0
1509 0 0 0
1510 0 0 0
1511 0 0 0
1525 0 0 0
1528 0 0 0
1529 0 0 0
1530 0 0 0
1531 0 0 0
1572 0 0 0
1575 0 0 0
1582 0 0 0
1585 0 0 0
1586 0 0 0
1587 0 0 0
1588 0 0 0
1629 0 0 0
1630 0 0 0
1631 0 0 0
850 0 0 0
851 0 0 0
856 0 0 0
858 0 0 0
859 0 0 0
861 0 0 0
892 0 0 0
893 0 0 0
898 0 0 0
924 0 0 0
925 0 0 0
926 0 0 0
944 0 0 0
945 0 0 0
949 0 0 0
961 0 0 0
962 0 0 0
963 0 0 0
986 0 0 0
989 0 0 0
990 0 0 0
991 0 0 0
992 0 0 0
1010 0 0 0
1013 0 0 0
1043 0 0 0
1046 0 0 0
1047 0 0 0
1048 0 0 0
1049 0 0 0
1086 0 0 0
1087 0 0 0
1088 0 0 0
849 0 0 0
852 0 0 0
853 0 0 0
854 0 0 0
855 0 0 0
862 0 0 0
869 0 0 0
872 0 0 0
873 0 0 0
874 0 0 0
875 0 0 0
885 0 0 0
888 0 0 0
899 0 0 0
920 0 0 0
921 0 0 0
922 0 0 0
974 0 0 0
975 0 0 0
980 0 0 0
1011 0 0 0
1012 0 0 0
1014 0 0 0
1039 0 0 0
1040 0 0 0
1042 0 0 0
1063 0 0 0
1064 0 0 0
1068 0 0 0
1084 0 0 0
1085 0 0 0
1089 0 0 0
1099 0 0 0
1100 0 0 0
1101 0 0 0
1954 0 0 0
1955 0 0 0
1960 0 0 0
1962 0 0 0
1963 0 0 0
1965 0 0 0
1996 0 0 0
1997 0 0 0
2002 0 0 0
2028 0 0 0
2029 0 0 0
2030 0 0 0
2048 0 0 0
2049 0 0 0
2053 0 0 0
2065 0 0 0
2066 0 0 0
2067 0 0 0
2090 0 0 0
2093 0 0 0
2094 0 0 0
2095 0 0 0
2096 0 0 0
2114 0 0 0
2117 0 0 0
2147 0 0 0
2150 0 0 0
2151 0 0 0
2152 0 0 0
2153 0 0 0
2190 0 0 0
2191 0 0 0
2192 0 0 0
1953 0 0 0
1956 0 0 0
1957 0 0 0
1958 0 0 0
1959 0 0 0
1966 0 0 0
1973 0 0 0
1976 0 0 0
1977 0 0 0
1978 0 0 0
1979 0 0 0
1989 0 0 0
1992 0 0 0
2003 0 0 0
2024 0 0 0
2025 0 0 0
2026 0 0 0
2078 0 0 0
2079 0 0 0
2084 0 0 0
2115 0 0 0
2116 0 0 0
2118 0 0 0
2143 0 0 0
2144 0 0 0
2146 0 0 0
2167 0 0 0
2168 0 0 0
2172 0 0 0
2188 0 0 0
2189 0 0 0
2193 0 0 0
2203 0 0 0
2204 0 0 0
2205 0 0 0
835 0 0 0
838 0 0 0
840 0 0 0
857 0 0 0
860 0 0 0
900 0 0 0
903 0 0 0
905 0 0 0
929 0 0 0
930 0 0 0
931 0 0 0
935 0 0 0
936 0 0 0
937 0 0 0
946 0 0 0
947 0 0 0
948 0 0 0
987 0 0 0
988 0 0 0
993 0 0 0
1021 0 0 0
1022 0 0 0
1024 0 0 0
1026 0 0 0
1027 0 0 0
1029 0 0 0
1054 0 0 0
1055 0 0 0
1059 0 0 0
1075 0 0 0
1076 0 0 0
1080 0 0 0
1102 0 0 0
1103 0 0 0
1104 0 0 0
836 0 0 0
837 0 0 0
839 0 0 0
870 0 0 0
871 0 0 0
876 0 0 0
890 0 0 0
907 0 0 0
908 0 0 0
913 0 0 0
914 0 0 0
915 0 0 0
916 0 0 0
917 0 0 0
933 0 0 0
934 0 0 0
938 0 0 0
957 0 0 0
958 0 0 0
959 0 0 0
973 0 0 0
976 0 0 0
977 0 0 0
978 0 0 0
979 0 0 0
1020 0 0 0
1023 0 0 0
1030 0 0 0
1033 0 0 0
1034 0 0 0
1035 0 0 0
1036 0 0 0
1077 0 0 0
1078 0 0 0
1079 0 0 0
1939 0 0 0
1942 0 0 0
1944 0 0 0
1961 0 0 0
1964 0 0 0
2004 0 0 0
2007 0 0 0
2009 0 0 0
2033 0 0 0
2034 0 0 0
2035 0 0 0
2039 0 0 0
2040 0 0 0
2041 0 0 0
2050 0 0 0
2051 0 0 0
2052 0 0 0
2091 0 0 0
2092 0 0 0
2097 0 0 0
2125 0 0 0
2126 0 0 0
2128 0 0 0
2130 0 0 0
2131 0 0 0
2133 0 0 0
2158 0 0 0
2159 0 0 0
2163 0 0 0
2179 0 0 0
2180 0 0 0
2184 0 0 0
2206 0 0 0
2207 0 0 0
2208 0 0 0
1940 0 0 0
1941 0 0 0
1943 0 0 0
1974 0 0 0
1975 0 0 0
1980 0 0 0
1994 0 0 0
2011 0 0 0
2012 0 0 0
2017 0 0 0
2018 0 0 0
2019 0 0 0
2020 0 0 0
2021 0 0 0
2037 0 0 0
2038 0 0 0
2042 0 0 0
2061 0 0 0
2062 0 0 0
2063 0 0 0
2077 0 0 0
2080 0 0 0
2081 0 0 0
2082 0 0 0
2083 0 0 0
2124 0 0 0
2127 0 0 0
2134 0 0 0
2137 0 0 0
2138 0 0 0
2139 0 0 0
2140 0 0 0
2181 0 0 0
2182 0 0 0
2183 0 0 0
277 0 0 0
280 0 0 0
325 0 0 0
328 0 0 0
329 0 0 0
330 0 0 0
331 0 0 0
339 0 0 0
342 0 0 0
343 0 0 0
344 0 0 0
345 0 0 0
391 0 0 0
398 0 0 0
414 0 0 0
415 0 0 0
416 0 0 0
430 0 0 0
431 0 0 0
433 0 0 0
464 0 0 0
465 0 0 0
467 0 0 0
492 0 0 0
493 0 0 0
498 0 0 0
499 0 0 0
500 0 0 0
501 0 0 0
517 0 0 0
518 0 0 0
522 0 0 0
538 0 0 0
539 0 0 0
543 0 0 0
282 0 0 0
290 0 0 0
291 0 0 0
296 0 0 0
326 0 0 0
327 0 0 0
332 0 0 0
334 0 0 0
335 0 0 0
337 0 0 0
366 0 0 0
367 0 0 0
371 0 0 0
388 0 0 0
389 0 0 0
390 0 0 0
408 0 0 0
418 0 0 0
419 0 0 0
420 0 0 0
429 0 0 0
432 0 0 0
450 0 0 0
453 0 0 0
454 0 0 0
455 0 0 0
456 0 0 0
486 0 0 0
489 0 0 0
513 0 0 0
514 0 0 0
515 0 0 0
519 0 0 0
520 0 0 0
521 0 0 0
1381 0 0 0
1384 0 0 0
1429 0 0 0
1432 0 0 0
1433 0 0 0
1434 0 0 0
1435 0 0 0
1443 0 0 0
1446 0 0 0
1447 0 0 0
1448 0 0 0
1449 0 0 0
1495 0 0 0
1502 0 0 0
1518 0 0 0
1519 0 0 0
1520 0 0 0
1534 0 0 0
1535 0 0 0
1537 0 0 0
1568 0 0 0
1569 0 0 0
1571 0 0 0
1596 0 0 0
1597 0 0 0
1602 0 0 0
1603 0 0 0
1604 0 0 0
1605 0 0 0
1621 0 0 0
1622 0 0 0
1626 0 0 0
1642 0 0 0
1643 0 0 0
1647 0 0 0
1386 0 0 0
1394 0 0 0
1395 0 0 0
1400 0 0 0
1430 0 0 0
1431 0 0 0
1436 0 0 0
1438 0 0 0
1439 0 0 0
1441 0 0 0
1470 0 0 0
1471 0 0 0
1475 0 0 0
1492 0 0 0
1493 0 0 0
1494 0 0 0
1512 0 0 0
1522 0 0 0
1523 0 0 0
1524 0 0 0
1533 0 0 0
1536 0 0 0
1554 0 0 0
1557 0 0 0
1558 0 0 0
1559 0 0 0
1560 0 0 0
1590 0 0 0
1593 0 0 0
1617 0 0 0
1618 0 0 0
1619 0 0 0
1623 0 0 0
1624 0 0 0
1625 0 0 0
278 0 0 0
279 0 0 0
281 0 0 0
312 0 0 0
313 0 0 0
315 0 0 0
316 0 0 0
349 0 0 0
350 0 0 0
352 0 0 0
375 0 0 0
376 0 0 0
380 0 0 0
387 0 0 0
399 0 0 0
400 0 0 0
404 0 0 0
412 0 0 0
413 0 0 0
417 0 0 0
442 0 0 0
445 0 0 0
446 0 0 0
447 0 0 0
448 0 0 0
463 0 0 0
466 0 0 0
473 0 0 0
476 0 0 0
504 0 0 0
505 0 0 0
506 0 0 0
540 0 0 0
541 0 0 0
542 0 0 0
289 0 0 0
292 0 0 0
293 0 0 0
294 0 0 0
295 0 0 0
311 0 0 0
314 0 0 0
354 0 0 0
357 0 0 0
358 0 0 0
359 0 0 0
360 0 0 0
401 0 0 0
402 0 0 0
403 0 0 0
443 0 0 0
444 0 0 0
449 0 0 0
451 0 0 0
452 0 0 0
457 0 0 0
479 0 0 0
480 0 0 0
485 0 0 0
508 0 0 0
509 0 0 0
510 0 0 0
529 0 0 0
530 0 0 0
531 0 0 0
544 0 0 0
545 0 0 0
546 0 0 0
1382 0 0 0
1383 0 0 0
1385 0 0 0
1416 0 0 0
1417 0 0 0
1419 0 0 0
1420 0 0 0
1453 0 0 0
1454 0 0 0
1456 0 0 0
1479 0 0 0
1480 0 0 0
1484 0 0 0
1491 0 0 0
1503 0 0 0
1504 0 0 0
1508 0 0 0
1516 0 0 0
1517 0 0 0
1521 0 0 0
1546 0 0 0
1549 0 0 0
1550 0 0 0
1551 0 0 0
1552 0 0 0
1567 0 0 0
1570 0 0 0
1577 0 0 0
1580 0 0 0
1608 0 0 0
1609 0 0 0
1610 0 0 0
1644 0 0 0
1645 0 0 0
1646 0 0 0
1393 0 0 0
1396 0 0 0
1397 0 0 0
1398 0 0 0
1399 0 0 0
1415 0 0 0
1418 0 0 0
1458 0 0 0
1461 0 0 0
1462 0 0 0
1463 0 0 0
1464 0 0 0
1505 0 0 0
1506 0 0 0
1507 0 0 0
1547 0 0 0
1548 0 0 0
1553 0 0 0
1555 0 0 0
1556 0 0 0
1561 0 0 0
1583 0 0 0
1584 0 0 0
1589 0 0 0
1612 0 0 0
1613 0 0 0
1614 0 0 0
1633 0 0 0
1634 0 0 0
1635 0 0 0
1648 0 0 0
1649 0 0 0
1650 0 0 0
829 0 0 0
832 0 0 0
877 0 0 0
880 0 0 0
881 0 0 0
882 0 0 0
883 0 0 0
891 0 0 0
894 0 0 0
895 0 0 0
896 0 0 0
897 0 0 0
943 0 0 0
950 0 0 0
966 0 0 0
967 0 0 0
968 0 0 0
982 0 0 0
983 0 0 0
985 0 0 0
1016 0 0 0
1017 0 0 0
1019 0 0 0
1044 0 0 0
1045 0 0 0
1050 0 0 0
1051 0 0 0
1052 0 0 0
1053 0 0 0
1069 0 0 0
1070 0 0 0
1074 0 0 0
1090 0 0 0
1091 0 0 0
1095 0 0 0
834 0 0 0
842 0 0 0
843 0 0 0
848 0 0 0
878 0 0 0
879 0 0 0
884 0 0 0
886 0 0 0
887 0 0 0
889 0 0 0
918 0 0 0
919 0 0 0
923 0 0 0
940 0 0 0
941 0 0 0
942 0 0 0
960 0 0 0
970 0 0 0
971 0 0 0
972 0 0 0
981 0 0 0
984 0 0 0
1002 0 0 0
1005 0 0 0
1006 0 0 0
1007 0 0 0
1008 0 0 0
1038 0 0 0
1041 0 0 0
1065 0 0 0
1066 0 0 0
1067 0 0 0
1071 0 0 0
1072 0 0 0
1073 0 0 0
1933 0 0 0
1936 0 0 0
1981 0 0 0
1984 0 0 0
1985 0 0 0
1986 0 0 0
1987 0 0 0
1995 0 0 0
1998 0 0 0
1999 0 0 0
2000 0 0 0
2001 0 0 0
2047 0 0 0
2054 0 0 0
2070 0 0 0
2071 0 0 0
2072 0 0 0
2086 0 0 0
2087 0 0 0
2089 0 0 0
2120 0 0 0
2121 0 0 0
2123 0 0 0
2148 0 0 0
2149 0 0 0
2154 0 0 0
2155 0 0 0
2156 0 0 0
2157 0 0 0
2173 0 0 0
2174 0 0 0
2178 0 0 0
2194 0 0 0
2195 0 0 0
2199 0 0 0
1938 0 0 0
1946 0 0 0
1947 0 0 0
1952 0 0 0
1982 0 0 0
1983 0 0 0
1988 0 0 0
1990 0 0 0
1991 0 0 0
1993 0 0 0
2022 0 0 0
2023 0 0 0
2027 0 0 0
2044 0 0 0
2045 0 0 0
2046 0 0 0
2064 0 0 0
2074 0 0 0
2075 0 0 0
2076 0 0 0
2085 0 0 0
2088 0 0 0
2106 0 0 0
2109 0 0 0
2110 0 0 0
2111 0 0 0
2112 0 0 0
2142 0 0 0
2145 0 0 0
2169 0 0 0
2170 0 0 0
2171 0 0 0
2175 0 0 0
2176 0 0 0
2177 0 0 0
830 0 0 0
831 0 0 0
833 0 0 0
864 0 0 0
865 0 0 0
867 0 0 0
868 0 0 0
901 0 0 0
902 0 0 0
904 0 0 0
927 0 0 0
928 0 0 0
932 0 0 0
939 0 0 0
951 0 0 0
952 0 0 0
956 0 0 0
964 0 0 0
965 0 0 0
969 0 0 0
994 0 0 0
997 0 0 0
998 0 0 0
999 0 0 0
1000 0 0 0
1015 0 0 0
1018 0 0 0
1025 0 0 0
1028 0 0 0
1056 0 0 0
1057 0 0 0
1058 0 0 0
1092 0 0 0
1093 0 0 0
1094 0 0 0
841 0 0 0
844 0 0 0
845 0 0 0
846 0 0 0
847 0 0 0
863 0 0 0
866 0 0 0
906 0 0 0
909 0 0 0
910 0 0 0
911 0 0 0
912 0 0 0
953 0 0 0
954 0 0 0
955 0 0 0
995 0 0 0
996 0 0 0
1001 0 0 0
1003 0 0 0
1004 0 0 0
1009 0 0 0
1031 0 0 0
1032 0 0 0
1037 0 0 0
1060 0 0 0
1061 0 0 0
1062 0 0 0
1081 0 0 0
1082 0 0 0
1083 0 0 0
1096 0 0 0
1097 0 0 0
1098 0 0 0
1934 0 0 0
1935 0 0 0
1937 0 0 0
1968 0 0 0
1969 0 0 0
1971 0 0 0
1972 0 0 0
2005 0 0 0
2006 0 0 0
2008 0 0 0
2031 0 0 0
2032 0 0 0
2036 0 0 0
2043 0 0 0
2055 0 0 0
2056 0 0 0
2060 0 0 0
2068 0 0 0
2069 0 0 0
2073 0 0 0
2098 0 0 0
2101 0 0 0
2102 0 0 0
2103 0 0 0
2104 0 0 0
2119 0 0 0
2122 0 0 0
2129 0 0 0
2132 0 0 0
2160 0 0 0
2161 0 0 0
2162 0 0 0
2196 0 0 0
2197 0 0 0
2198 0 0 0
1945 0 0 0
1948 0 0 0
1949 0 0 0
1950 0 0 0
1951 0 0 0
1967 0 0 0
1970 0 0 0
2010 0 0 0
2013 0 0 0
2014 0 0 0
2015 0 0 0
2016 0 0 0
2057 0 0 0
2058 0 0 0
2059 0 0 0
2099 0 0 0
2100 0 0 0
2105 0 0 0
2107 0 0 0
2108 0 0 0
2113 0 0 0
2135 0 0 0
2136 0 0 0
2141 0 0 0
2164 0 0 0
2165 0 0 0
2166 0 0 0
2185 0 0 0
2186 0 0 0
2187 0 0 0
2200 0 0 0
2201 0 0 0
2202 0 0 0

Bonds

1 4 23 22
2 6 28 12
3 3 28 22
4 4 31 30
5 3 33 30
6 4 65 64
7 3 70 64
8 5 96 64
9 4 97 96
10 6 98 77
11 3 98 96
12 5 116 30
13 4 117 116
14 3 121 116
15 5 133 22
16 4 134 133
17 6 135 115
18 3 135 133
19 1 161 158
20 7 162 161
21 8 163 161
22 9 164 161
23 1 185 182
24 1 218 215
25 7 219 218
26 8 220 218
27 9 221 218
28 7 258 185
29 8 259 185
30 9 260 185
31 1 24 21
32 7 25 24
33 8 26 24
34 9 27 24
35 6 34 33
36 1 44 41
37 7 45 44
38 8 46 44
39 9 47 44
40 1 60 57
41 6 71 70
42 7 92 60
43 8 93 60
44 9 94 60
45 4 147 146
46 2 152 145
47 3 152 146
48 4 184 183
49 6 186 34
50 2 186 182
51 3 186 183
52 4 212 211
53 6 214 132
54 2 214 210
55 3 214 211
56 5 235 211
57 4 236 235
58 2 240 210
59 3 240 235
60 5 256 183
61 4 257 256
62 6 261 71
63 2 261 182
64 3 261 256
65 5 271 146
66 4 272 271
67 6 273 62
68 2 273 145
69 3 273 271
70 4 1127 1126
71 2 1132 21
72 6 1132 1116
73 3 1132 1126
74 4 1135 1134
75 3 1137 1134
76 4 1169 1168
77 3 1174 1168
78 5 1200 1168
79 4 1201 1200
80 6 1202 1181
81 3 1202 1200
82 5 1220 1134
83 4 1221 1220
84 3 1225 1220
85 5 1237 1126
86 4 1238 1237
87 2 1239 21
88 6 1239 1219
89 3 1239 1237
90 1 1265 1262
91 7 1266 1265
92 8 1267 1265
93 9 1268 1265
94 1 1289 1286
95 1 1322 1319
96 7 1323 1322
97 8 1324 1322
98 9 1325 1322
99 7 1362 1289
100 8 1363 1289
101 9 1364 1289
102 2 1125 28
103 2 1125 135
104 1 1128 1125
105 7 1129 1128
106 8 1130 1128
107 9 1131 1128
108 6 1138 1137
109 1 1148 1145
110 7 1149 1148
111 8 1150 1148
112 9 1151 1148
113 1 1164 1161
114 6 1175 1174
115 7 1196 1164
116 8 1197 1164
117 9 1198 1164
118 4 1251 1250
119 6 1256 12
120 2 1256 1249
121 3 1256 1250
122 4 1288 1287
123 6 1290 1138
124 2 1290 1286
125 3 1290 1287
126 4 1316 1315
127 6 1318 1236
128 2 1318 1314
129 3 1318 1315
130 5 1339 1315
131 4 1340 1339
132 6 1344 115
133 2 1344 1314
134 3 1344 1339
135 5 1360 1287
136 4 1361 1360
137 6 1365 1175
138 2 1365 1286
139 3 1365 1360
140 5 1375 1250
141 4 1376 1375
142 6 1377 1166
143 2 1377 1249
144 3 1377 1375
145 1 10 7
146 1 32 29
147 1 75 72
148 7 101 75
149 8 102 75
150 9 103 75
151 7 107 10
152 8 108 10
153 9 109 10
154 7 118 32
155 8 119 32
156 9 120 32
157 4 160 159
158 6 165 12
159 2 165 158
160 3 165 159
161 4 194 193
162 2 196 192
163 3 196 193
164 4 199 198
165 2 201 197
166 3 201 198
167 5 226 198
168 4 227 226
169 6 231 111
170 2 231 197
171 3 231 226
172 5 247 193
173 4 248 247
174 6 252 86
175 2 252 192
176 3 252 247
177 5 274 159
178 4 275 274
179 6 276 77
180 2 276 158
181 3 276 274
182 4 9 8
183 3 11 8
184 4 43 42
185 3 48 42
186 4 80 79
187 3 85 79
188 6 86 85
189 5 87 79
190 4 88 87
191 6 89 62
192 3 89 87
193 5 105 8
194 4 106 105
195 3 110 105
196 5 129 42
197 4 130 129
198 3 131 129
199 1 148 145
200 7 149 148
201 8 150 148
202 9 151 148
203 1 195 192
204 1 205 202
205 7 206 205
206 8 207 205
207 9 208 205
208 7 249 195
209 8 250 195
210 9 251 195
211 2 1111 11
212 2 1111 110
213 1 1114 1111
214 6 1116 11
215 6 1116 152
216 1 1136 1133
217 1 1179 1176
218 7 1205 1179
219 8 1206 1179
220 9 1207 1179
221 7 1211 1114
222 8 1212 1114
223 9 1213 1114
224 7 1222 1136
225 8 1223 1136
226 9 1224 1136
227 4 1264 1263
228 6 1269 1116
229 2 1269 1262
230 3 1269 1263
231 4 1298 1297
232 2 1300 1296
233 3 1300 1297
234 4 1303 1302
235 2 1305 1301
236 3 1305 1302
237 5 1330 1302
238 4 1331 1330
239 6 1335 1215
240 2 1335 1301
241 3 1335 1330
242 5 1351 1297
243 4 1352 1351
244 6 1356 1190
245 2 1356 1296
246 3 1356 1351
247 5 1378 1263
248 4 1379 1378
249 6 1380 1181
250 2 1380 1262
251 3 1380 1378
252 4 1113 1112
253 2 1115 7
254 6 1115 12
255 3 1115 1112
256 4 1147 1146
257 3 1152 1146
258 4 1184 1183
259 3 1189 1183
260 6 1190 1189
261 5 1191 1183
262 4 1192 1191
263 6 1193 1166
264 3 1193 1191
265 5 1209 1112
266 4 1210 1209
267 2 1214 7
268 6 1214 111
269 3 1214 1209
270 5 1233 1146
271 4 1234 1233
272 3 1235 1233
273 1 1252 1249
274 7 1253 1252
275 8 1254 1252
276 9 1255 1252
277 1 1299 1296
278 1 1309 1306
279 7 1310 1309
280 8 1311 1309
281 9 1312 1309
282 7 1353 1299
283 8 1354 1299
284 9 1355 1299
285 4 575 574
286 6 580 564
287 3 580 574
288 4 583 582
289 2 585 29
290 3 585 582
291 4 617 616
292 3 622 616
293 5 648 616
294 4 649 648
295 6 650 629
296 3 650 648
297 5 668 582
298 4 669 668
299 2 673 29
300 3 673 668
301 5 685 574
302 4 686 685
303 6 687 667
304 3 687 685
305 1 713 710
306 7 714 713
307 8 715 713
308 9 716 713
309 1 737 734
310 1 770 767
311 7 771 770
312 8 772 770
313 9 773 770
314 7 810 737
315 8 811 737
316 9 812 737
317 1 576 573
318 7 577 576
319 8 578 576
320 9 579 576
321 6 586 48
322 6 586 196
323 6 586 585
324 2 593 48
325 2 593 131
326 1 596 593
327 7 597 596
328 8 598 596
329 9 599 596
330 1 612 609
331 6 623 622
332 7 644 612
333 8 645 612
334 9 646 612
335 4 699 698
336 2 704 697
337 3 704 698
338 4 736 735
339 6 738 586
340 2 738 734
341 3 738 735
342 4 764 763
343 6 766 684
344 2 766 762
345 3 766 763
346 5 787 763
347 4 788 787
348 2 792 762
349 3 792 787
350 5 808 735
351 4 809 808
352 6 813 623
353 2 813 734
354 3 813 808
355 5 823 698
356 4 824 823
357 6 825 614
358 2 825 697
359 3 825 823
360 4 1679 1678
361 2 1684 573
362 6 1684 1668
363 3 1684 1678
364 4 1687 1686
365 2 1689 1133
366 3 1689 1686
367 4 1721 1720
368 3 1726 1720
369 5 1752 1720
370 4 1753 1752
371 6 1754 1733
372 3 1754 1752
373 5 1772 1686
374 4 1773 1772
375 2 1777 1133
376 3 1777 1772
377 5 1789 1678
378 4 1790 1789
379 2 1791 573
380 6 1791 1771
381 3 1791 1789
382 1 1817 1814
383 7 1818 1817
384 8 1819 1817
385 9 1820 1817
386 1 1841 1838
387 1 1874 1871
388 7 1875 1874
389 8 1876 1874
390 9 1877 1874
391 7 1914 1841
392 8 1915 1841
393 9 1916 1841
394 2 1677 580
395 2 1677 687
396 1 1680 1677
397 7 1681 1680
398 8 1682 1680
399 9 1683 1680
400 6 1690 1152
401 6 1690 1300
402 6 1690 1689
403 2 1697 1152
404 2 1697 1235
405 1 1700 1697
406 7 1701 1700
407 8 1702 1700
408 9 1703 1700
409 1 1716 1713
410 6 1727 1726
411 7 1748 1716
412 8 1749 1716
413 9 1750 1716
414 4 1803 1802
415 6 1808 564
416 2 1808 1801
417 3 1808 1802
418 4 1840 1839
419 6 1842 1690
420 2 1842 1838
421 3 1842 1839
422 4 1868 1867
423 6 1870 1788
424 2 1870 1866
425 3 1870 1867
426 5 1891 1867
427 4 1892 1891
428 6 1896 667
429 2 1896 1866
430 3 1896 1891
431 5 1912 1839
432 4 1913 1912
433 6 1917 1727
434 2 1917 1838
435 3 1917 1912
436 5 1927 1802
437 4 1928 1927
438 6 1929 1718
439 2 1929 1801
440 3 1929 1927
441 1 562 559
442 2 581 33
443 2 581 121
444 1 584 581
445 1 627 624
446 7 653 627
447 8 654 627
448 9 655 627
449 7 659 562
450 8 660 562
451 9 661 562
452 7 670 584
453 8 671 584
454 9 672 584
455 4 712 711
456 6 717 564
457 2 717 710
458 3 717 711
459 4 746 745
460 6 748 34
461 2 748 744
462 3 748 745
463 4 751 750
464 6 753 122
465 2 753 749
466 3 753 750
467 5 778 750
468 4 779 778
469 6 783 663
470 2 783 749
471 3 783 778
472 5 799 745
473 4 800 799
474 6 804 638
475 2 804 744
476 3 804 799
477 5 826 711
478 4 827 826
479 6 828 629
480 2 828 710
481 3 828 826
482 4 561 560
483 3 563 560
484 4 595 594
485 6 600 34
486 2 600 41
487 3 600 594
488 4 632 631
489 3 637 631
490 6 638 637
491 5 639 631
492 4 640 639
493 6 641 614
494 3 641 639
495 5 657 560
496 4 658 657
497 3 662 657
498 5 681 594
499 4 682 681
500 2 683 41
501 6 683 132
502 3 683 681
503 1 700 697
504 7 701 700
505 8 702 700
506 9 703 700
507 1 747 744
508 1 757 754
509 7 758 757
510 8 759 757
511 9 760 757
512 7 801 747
513 8 802 747
514 9 803 747
515 2 1663 563
516 2 1663 662
517 1 1666 1663
518 6 1668 563
519 6 1668 704
520 2 1685 1137
521 2 1685 1225
522 1 1688 1685
523 1 1731 1728
524 7 1757 1731
525 8 1758 1731
526 9 1759 1731
527 7 1763 1666
528 8 1764 1666
529 9 1765 1666
530 7 1774 1688
531 8 1775 1688
532 9 1776 1688
533 4 1816 1815
534 6 1821 1668
535 2 1821 1814
536 3 1821 1815
537 4 1850 1849
538 6 1852 1138
539 2 1852 1848
540 3 1852 1849
541 4 1855 1854
542 6 1857 1226
543 2 1857 1853
544 3 1857 1854
545 5 1882 1854
546 4 1883 1882
547 6 1887 1767
548 2 1887 1853
549 3 1887 1882
550 5 1903 1849
551 4 1904 1903
552 6 1908 1742
553 2 1908 1848
554 3 1908 1903
555 5 1930 1815
556 4 1931 1930
557 6 1932 1733
558 2 1932 1814
559 3 1932 1930
560 4 1665 1664
561 2 1667 559
562 6 1667 564
563 3 1667 1664
564 4 1699 1698
565 6 1704 1138
566 2 1704 1145
567 3 1704 1698
568 4 1736 1735
569 3 1741 1735
570 6 1742 1741
571 5 1743 1735
572 4 1744 1743
573 6 1745 1718
574 3 1745 1743
575 5 1761 1664
576 4 1762 1761
577 2 1766 559
578 6 1766 663
579 3 1766 1761
580 5 1785 1698
581 4 1786 1785
582 2 1787 1145
583 6 1787 1236
584 3 1787 1785
585 1 1804 1801
586 7 1805 1804
587 8 1806 1804
588 9 1807 1804
589 1 1851 1848
590 1 1861 1858
591 7 1862 1861
592 8 1863 1861
593 9 1864 1861
594 7 1905 1851
595 8 1906 1851
596 9 1907 1851
597 1 4 1
598 1 52 49
599 7 53 52
600 8 54 52
601 9 55 52
602 1 66 63
603 7 67 66
604 8 68 66
605 9 69 66
606 6 122 121
607 7 138 4
608 8 139 4
609 9 140 4
610 4 155 154
611 6 157 6
612 2 157 153
613 3 157 154
614 4 189 188
615 6 191 40
616 2 191 187
617 3 191 188
618 4 217 216
619 6 222 115
620 2 222 215
621 3 222 216
622 5 223 216
623 4 224 223
624 6 225 122
625 2 225 215
626 3 225 223
627 5 241 154
628 4 242 241
629 2 246 153
630 3 246 241
631 5 262 188
632 4 263 262
633 2 267 187
634 3 267 262
635 4 15 14
636 6 20 6
637 3 20 14
638 4 51 50
639 3 56 50
640 4 59 58
641 3 61 58
642 5 90 58
643 4 91 90
644 3 95 90
645 5 112 50
646 4 113 112
647 3 114 112
648 5 142 14
649 4 143 142
650 6 144 132
651 3 144 142
652 1 156 153
653 1 177 174
654 7 178 177
655 8 179 177
656 9 180 177
657 1 213 210
658 7 237 213
659 8 238 213
660 9 239 213
661 7 243 156
662 8 244 156
663 9 245 156
664 1 1108 1105
665 2 1153 56
666 2 1153 114
667 1 1156 1153
668 7 1157 1156
669 8 1158 1156
670 9 1159 1156
671 1 1170 1167
672 7 1171 1170
673 8 1172 1170
674 9 1173 1170
675 6 1219 114
676 6 1219 240
677 6 1226 1225
678 7 1242 1108
679 8 1243 1108
680 9 1244 1108
681 4 1259 1258
682 6 1261 1110
683 2 1261 1257
684 3 1261 1258
685 4 1293 1292
686 6 1295 1144
687 2 1295 1291
688 3 1295 1292
689 4 1321 1320
690 6 1326 1219
691 2 1326 1319
692 3 1326 1320
693 5 1327 1320
694 4 1328 1327
695 6 1329 1226
696 2 1329 1319
697 3 1329 1327
698 5 1345 1258
699 4 1346 1345
700 2 1350 1257
701 3 1350 1345
702 5 1366 1292
703 4 1367 1366
704 2 1371 1291
705 3 1371 1366
706 4 1119 1118
707 6 1124 1110
708 3 1124 1118
709 4 1155 1154
710 6 1160 40
711 2 1160 49
712 3 1160 1154
713 4 1163 1162
714 3 1165 1162
715 5 1194 1162
716 4 1195 1194
717 3 1199 1194
718 5 1216 1154
719 4 1217 1216
720 2 1218 49
721 6 1218 115
722 3 1218 1216
723 5 1246 1118
724 4 1247 1246
725 6 1248 1236
726 3 1248 1246
727 1 1260 1257
728 1 1281 1278
729 7 1282 1281
730 8 1283 1281
731 9 1284 1281
732 1 1317 1314
733 7 1341 1317
734 8 1342 1317
735 9 1343 1317
736 7 1347 1260
737 8 1348 1260
738 9 1349 1260
739 4 3 2
740 3 5 2
741 4 37 36
742 3 39 36
743 6 40 39
744 4 74 73
745 3 76 73
746 5 99 73
747 4 100 99
748 3 104 99
749 5 123 36
750 4 124 123
751 6 128 111
752 3 128 123
753 5 136 2
754 4 137 136
755 3 141 136
756 1 169 166
757 7 170 169
758 8 171 169
759 9 172 169
760 1 190 187
761 1 200 197
762 7 228 200
763 8 229 200
764 9 230 200
765 7 264 190
766 8 265 190
767 9 266 190
768 1 16 13
769 7 17 16
770 8 18 16
771 9 19 16
772 1 38 35
773 1 81 78
774 7 82 81
775 8 83 81
776 9 84 81
777 7 125 38
778 8 126 38
779 9 127 38
780 4 168 167
781 2 173 166
782 3 173 167
783 4 176 175
784 2 181 174
785 3 181 175
786 4 204 203
787 2 209 202
788 3 209 203
789 5 232 203
790 4 233 232
791 2 234 202
792 3 234 232
793 5 253 175
794 4 254 253
795 2 255 174
796 3 255 253
797 5 268 167
798 4 269 268
799 2 270 166
800 3 270 268
801 4 1107 1106
802 3 1109 1106
803 4 1141 1140
804 2 1143 35
805 3 1143 1140
806 6 1144 56
807 6 1144 181
808 6 1144 1143
809 4 1178 1177
810 3 1180 1177
811 5 1203 1177
812 4 1204 1203
813 3 1208 1203
814 6 1215 110
815 6 1215 209
816 5 1227 1140
817 4 1228 1227
818 2 1232 35
819 6 1232 1215
820 3 1232 1227
821 5 1240 1106
822 4 1241 1240
823 3 1245 1240
824 1 1273 1270
825 7 1274 1273
826 8 1275 1273
827 9 1276 1273
828 1 1294 1291
829 1 1304 1301
830 7 1332 1304
831 8 1333 1304
832 9 1334 1304
833 7 1368 1294
834 8 1369 1294
835 9 1370 1294
836 1 1120 1117
837 7 1121 1120
838 8 1122 1120
839 9 1123 1120
840 2 1139 39
841 2 1139 128
842 1 1142 1139
843 1 1185 1182
844 7 1186 1185
845 8 1187 1185
846 9 1188 1185
847 7 1229 1142
848 8 1230 1142
849 9 1231 1142
850 4 1272 1271
851 2 1277 1270
852 3 1277 1271
853 4 1280 1279
854 6 1285 40
855 2 1285 1278
856 3 1285 1279
857 4 1308 1307
858 6 1313 111
859 2 1313 1306
860 3 1313 1307
861 5 1336 1307
862 4 1337 1336
863 2 1338 1306
864 3 1338 1336
865 5 1357 1279
866 4 1358 1357
867 2 1359 1278
868 3 1359 1357
869 5 1372 1271
870 4 1373 1372
871 2 1374 1270
872 3 1374 1372
873 2 553 5
874 2 553 141
875 1 556 553
876 1 604 601
877 7 605 604
878 8 606 604
879 9 607 604
880 1 618 615
881 7 619 618
882 8 620 618
883 9 621 618
884 6 674 141
885 6 674 201
886 6 674 673
887 7 690 556
888 8 691 556
889 9 692 556
890 4 707 706
891 6 709 558
892 2 709 705
893 3 709 706
894 4 741 740
895 6 743 592
896 2 743 739
897 3 743 740
898 4 769 768
899 6 774 667
900 2 774 767
901 3 774 768
902 5 775 768
903 4 776 775
904 6 777 674
905 2 777 767
906 3 777 775
907 5 793 706
908 4 794 793
909 2 798 705
910 3 798 793
911 5 814 740
912 4 815 814
913 2 819 739
914 3 819 814
915 6 558 5
916 6 558 173
917 4 567 566
918 2 572 13
919 6 572 558
920 3 572 566
921 4 603 602
922 3 608 602
923 4 611 610
924 3 613 610
925 5 642 610
926 4 643 642
927 3 647 642
928 5 664 602
929 4 665 664
930 3 666 664
931 6 684 131
932 6 684 234
933 5 694 566
934 4 695 694
935 2 696 13
936 6 696 684
937 3 696 694
938 1 708 705
939 1 729 726
940 7 730 729
941 8 731 729
942 9 732 729
943 1 765 762
944 7 789 765
945 8 790 765
946 9 791 765
947 7 795 708
948 8 796 708
949 9 797 708
950 2 1657 1109
951 2 1657 1245
952 1 1660 1657
953 2 1705 608
954 2 1705 666
955 1 1708 1705
956 7 1709 1708
957 8 1710 1708
958 9 1711 1708
959 1 1722 1719
960 7 1723 1722
961 8 1724 1722
962 9 1725 1722
963 6 1771 666
964 6 1771 792
965 6 1778 1245
966 6 1778 1305
967 6 1778 1777
968 7 1794 1660
969 8 1795 1660
970 9 1796 1660
971 4 1811 1810
972 6 1813 1662
973 2 1813 1809
974 3 1813 1810
975 4 1845 1844
976 6 1847 1696
977 2 1847 1843
978 3 1847 1844
979 4 1873 1872
980 6 1878 1771
981 2 1878 1871
982 3 1878 1872
983 5 1879 1872
984 4 1880 1879
985 6 1881 1778
986 2 1881 1871
987 3 1881 1879
988 5 1897 1810
989 4 1898 1897
990 2 1902 1809
991 3 1902 1897
992 5 1918 1844
993 4 1919 1918
994 2 1923 1843
995 3 1923 1918
996 6 1662 1109
997 6 1662 1277
998 4 1671 1670
999 2 1676 1117
1000 6 1676 1662
1001 3 1676 1670
1002 4 1707 1706
1003 6 1712 592
1004 2 1712 601
1005 3 1712 1706
1006 4 1715 1714
1007 3 1717 1714
1008 5 1746 1714
1009 4 1747 1746
1010 3 1751 1746
1011 5 1768 1706
1012 4 1769 1768
1013 2 1770 601
1014 6 1770 667
1015 3 1770 1768
1016 6 1788 1235
1017 6 1788 1338
1018 5 1798 1670
1019 4 1799 1798
1020 2 1800 1117
1021 6 1800 1788
1022 3 1800 1798
1023 1 1812 1809
1024 1 1833 1830
1025 7 1834 1833
1026 8 1835 1833
1027 9 1836 1833
1028 1 1869 1866
1029 7 1893 1869
1030 8 1894 1869
1031 9 1895 1869
1032 7 1899 1812
1033 8 1900 1812
1034 9 1901 1812
1035 4 555 554
1036 2 557 1
1037 6 557 6
1038 3 557 554
1039 4 589 588
1040 3 591 588
1041 6 592 591
1042 4 626 625
1043 3 628 625
1044 5 651 625
1045 4 652 651
1046 3 656 651
1047 5 675 588
1048 4 676 675
1049 6 680 663
1050 3 680 675
1051 5 688 554
1052 4 689 688
1053 2 693 1
1054 6 693 122
1055 3 693 688
1056 1 721 718
1057 7 722 721
1058 8 723 721
1059 9 724 721
1060 1 742 739
1061 1 752 749
1062 7 780 752
1063 8 781 752
1064 9 782 752
1065 7 816 742
1066 8 817 742
1067 9 818 742
1068 2 565 20
1069 2 565 144
1070 1 568 565
1071 7 569 568
1072 8 570 568
1073 9 571 568
1074 1 590 587
1075 1 633 630
1076 7 634 633
1077 8 635 633
1078 9 636 633
1079 7 677 590
1080 8 678 590
1081 9 679 590
1082 4 720 719
1083 6 725 6
1084 2 725 718
1085 3 725 719
1086 4 728 727
1087 2 733 726
1088 3 733 727
1089 4 756 755
1090 2 761 754
1091 3 761 755
1092 5 784 755
1093 4 785 784
1094 6 786 132
1095 2 786 754
1096 3 786 784
1097 5 805 727
1098 4 806 805
1099 2 807 726
1100 3 807 805
1101 5 820 719
1102 4 821 820
1103 2 822 718
1104 3 822 820
1105 4 1659 1658
1106 2 1661 1105
1107 6 1661 1110
1108 3 1661 1658
1109 4 1693 1692
1110 2 1695 587
1111 3 1695 1692
1112 6 1696 608
1113 6 1696 733
1114 6 1696 1695
1115 4 1730 1729
1116 3 1732 1729
1117 5 1755 1729
1118 4 1756 1755
1119 3 1760 1755
1120 6 1767 662
1121 6 1767 761
1122 5 1779 1692
1123 4 1780 1779
1124 2 1784 587
1125 6 1784 1767
1126 3 1784 1779
1127 5 1792 1658
1128 4 1793 1792
1129 2 1797 1105
1130 6 1797 1226
1131 3 1797 1792
1132 1 1825 1822
1133 7 1826 1825
1134 8 1827 1825
1135 9 1828 1825
1136 1 1846 1843
1137 1 1856 1853
1138 7 1884 1856
1139 8 1885 1856
1140 9 1886 1856
1141 7 1920 1846
1142 8 1921 1846
1143 9 1922 1846
1144 2 1669 1124
1145 2 1669 1248
1146 1 1672 1669
1147 7 1673 1672
1148 8 1674 1672
1149 9 1675 1672
1150 2 1691 591
1151 2 1691 680
1152 1 1694 1691
1153 1 1737 1734
1154 7 1738 1737
1155 8 1739 1737
1156 9 1740 1737
1157 7 1781 1694
1158 8 1782 1694
1159 9 1783 1694
1160 4 1824 1823
1161 6 1829 1110
1162 2 1829 1822
1163 3 1829 1823
1164 4 1832 1831
1165 6 1837 592
1166 2 1837 1830
1167 3 1837 1831
1168 4 1860 1859
1169 6 1865 663
1170 2 1865 1858
1171 3 1865 1859
1172 5 1888 1859
1173 4 1889 1888
1174 6 1890 1236
1175 2 1890 1858
1176 3 1890 1888
1177 5 1909 1831
1178 4 1910 1909
1179 2 1911 1830
1180 3 1911 1909
1181 5 1924 1823
1182 4 1925 1924
1183 2 1926 1822
1184 3 1926 1924
1185 4 299 298
1186 6 304 288
1187 3 304 298
1188 4 307 306
1189 3 309 306
1190 4 341 340
1191 2 346 63
1192 3 346 340
1193 5 372 340
1194 4 373 372
1195 2 374 63
1196 6 374 353
1197 3 374 372
1198 5 392 306
1199 4 393 392
1200 3 397 392
1201 5 409 298
1202 4 410 409
1203 6 411 391
1204 3 411 409
1205 1 437 434
1206 7 438 437
1207 8 439 437
1208 9 440 437
1209 1 461 458
1210 1 494 491
1211 7 495 494
1212 8 496 494
1213 9 497 494
1214 7 534 461
1215 8 535 461
1216 9 536 461
1217 1 300 297
1218 7 301 300
1219 8 302 300
1220 9 303 300
1221 6 310 309
1222 1 320 317
1223 7 321 320
1224 8 322 320
1225 9 323 320
1226 2 333 61
1227 2 333 95
1228 1 336 333
1229 6 347 95
1230 6 347 246
1231 6 347 346
1232 7 368 336
1233 8 369 336
1234 9 370 336
1235 4 423 422
1236 2 428 421
1237 3 428 422
1238 4 460 459
1239 6 462 310
1240 2 462 458
1241 3 462 459
1242 4 488 487
1243 6 490 408
1244 2 490 486
1245 3 490 487
1246 5 511 487
1247 4 512 511
1248 2 516 486
1249 3 516 511
1250 5 532 459
1251 4 533 532
1252 6 537 347
1253 2 537 458
1254 3 537 532
1255 5 547 422
1256 4 548 547
1257 6 549 338
1258 2 549 421
1259 3 549 547
1260 4 1403 1402
1261 2 1408 297
1262 6 1408 1392
1263 3 1408 1402
1264 4 1411 1410
1265 3 1413 1410
1266 4 1445 1444
1267 2 1450 1167
1268 3 1450 1444
1269 5 1476 1444
1270 4 1477 1476
1271 2 1478 1167
1272 6 1478 1457
1273 3 1478 1476
1274 5 1496 1410
1275 4 1497 1496
1276 3 1501 1496
1277 5 1513 1402
1278 4 1514 1513
1279 2 1515 297
1280 6 1515 1495
1281 3 1515 1513
1282 1 1541 1538
1283 7 1542 1541
1284 8 1543 1541
1285 9 1544 1541
1286 1 1565 1562
1287 1 1598 1595
1288 7 1599 1598
1289 8 1600 1598
1290 9 1601 1598
1291 7 1638 1565
1292 8 1639 1565
1293 9 1640 1565
1294 2 1401 304
1295 2 1401 411
1296 1 1404 1401
1297 7 1405 1404
1298 8 1406 1404
1299 9 1407 1404
1300 6 1414 1413
1301 1 1424 1421
1302 7 1425 1424
1303 8 1426 1424
1304 9 1427 1424
1305 2 1437 1165
1306 2 1437 1199
1307 1 1440 1437
1308 6 1451 1199
1309 6 1451 1350
1310 6 1451 1450
1311 7 1472 1440
1312 8 1473 1440
1313 9 1474 1440
1314 4 1527 1526
1315 6 1532 288
1316 2 1532 1525
1317 3 1532 1526
1318 4 1564 1563
1319 6 1566 1414
1320 2 1566 1562
1321 3 1566 1563
1322 4 1592 1591
1323 6 1594 1512
1324 2 1594 1590
1325 3 1594 1591
1326 5 1615 1591
1327 4 1616 1615
1328 6 1620 391
1329 2 1620 1590
1330 3 1620 1615
1331 5 1636 1563
1332 4 1637 1636
1333 6 1641 1451
1334 2 1641 1562
1335 3 1641 1636
1336 5 1651 1526
1337 4 1652 1651
1338 6 1653 1442
1339 2 1653 1525
1340 3 1653 1651
1341 1 286 283
1342 1 308 305
1343 2 348 76
1344 2 348 104
1345 1 351 348
1346 6 353 76
1347 6 353 267
1348 7 377 351
1349 8 378 351
1350 9 379 351
1351 7 383 286
1352 8 384 286
1353 9 385 286
1354 7 394 308
1355 8 395 308
1356 9 396 308
1357 4 436 435
1358 6 441 288
1359 2 441 434
1360 3 441 435
1361 4 470 469
1362 2 472 468
1363 3 472 469
1364 4 475 474
1365 2 477 473
1366 3 477 474
1367 5 502 474
1368 4 503 502
1369 6 507 387
1370 2 507 473
1371 3 507 502
1372 5 523 469
1373 4 524 523
1374 6 528 362
1375 2 528 468
1376 3 528 523
1377 5 550 435
1378 4 551 550
1379 6 552 353
1380 2 552 434
1381 3 552 550
1382 4 285 284
1383 3 287 284
1384 4 319 318
1385 3 324 318
1386 6 338 61
1387 6 338 255
1388 4 356 355
1389 2 361 78
1390 3 361 355
1391 6 362 104
1392 6 362 270
1393 6 362 361
1394 5 363 355
1395 4 364 363
1396 2 365 78
1397 6 365 338
1398 3 365 363
1399 5 381 284
1400 4 382 381
1401 3 386 381
1402 5 405 318
1403 4 406 405
1404 3 407 405
1405 1 424 421
1406 7 425 424
1407 8 426 424
1408 9 427 424
1409 1 471 468
1410 1 481 478
1411 7 482 481
1412 8 483 481
1413 9 484 481
1414 7 525 471
1415 8 526 471
1416 9 527 471
1417 2 1387 287
1418 2 1387 386
1419 1 1390 1387
1420 6 1392 287
1421 6 1392 428
1422 1 1412 1409
1423 2 1452 1180
1424 2 1452 1208
1425 1 1455 1452
1426 6 1457 1180
1427 6 1457 1371
1428 7 1481 1455
1429 8 1482 1455
1430 9 1483 1455
1431 7 1487 1390
1432 8 1488 1390
1433 9 1489 1390
1434 7 1498 1412
1435 8 1499 1412
1436 9 1500 1412
1437 4 1540 1539
1438 6 1545 1392
1439 2 1545 1538
1440 3 1545 1539
1441 4 1574 1573
1442 2 1576 1572
1443 3 1576 1573
1444 4 1579 1578
1445 2 1581 1577
1446 3 1581 1578
1447 5 1606 1578
1448 4 1607 1606
1449 6 1611 1491
1450 2 1611 1577
1451 3 1611 1606
1452 5 1627 1573
1453 4 1628 1627
1454 6 1632 1466
1455 2 1632 1572
1456 3 1632 1627
1457 5 1654 1539
1458 4 1655 1654
1459 6 1656 1457
1460 2 1656 1538
1461 3 1656 1654
1462 4 1389 1388
1463 2 1391 283
1464 6 1391 288
1465 3 1391 1388
1466 4 1423 1422
1467 3 1428 1422
1468 6 1442 1165
1469 6 1442 1359
1470 4 1460 1459
1471 2 1465 1182
1472 3 1465 1459
1473 6 1466 1208
1474 6 1466 1374
1475 6 1466 1465
1476 5 1467 1459
1477 4 1468 1467
1478 2 1469 1182
1479 6 1469 1442
1480 3 1469 1467
1481 5 1485 1388
1482 4 1486 1485
1483 2 1490 283
1484 6 1490 387
1485 3 1490 1485
1486 5 1509 1422
1487 4 1510 1509
1488 3 1511 1509
1489 1 1528 1525
1490 7 1529 1528
1491 8 1530 1528
1492 9 1531 1528
1493 1 1575 1572
1494 1 1585 1582
1495 7 1586 1585
1496 8 1587 1585
1497 9 1588 1585
1498 7 1629 1575
1499 8 1630 1575
1500 9 1631 1575
1501 4 851 850
1502 6 856 840
1503 3 856 850
1504 4 859 858
1505 2 861 305
1506 3 861 858
1507 4 893 892
1508 2 898 615
1509 3 898 892
1510 5 924 892
1511 4 925 924
1512 2 926 615
1513 6 926 905
1514 3 926 924
1515 5 944 858
1516 4 945 944
1517 2 949 305
1518 3 949 944
1519 5 961 850
1520 4 962 961
1521 6 963 943
1522 3 963 961
1523 1 989 986
1524 7 990 989
1525 8 991 989
1526 9 992 989
1527 1 1013 1010
1528 1 1046 1043
1529 7 1047 1046
1530 8 1048 1046
1531 9 1049 1046
1532 7 1086 1013
1533 8 1087 1013
1534 9 1088 1013
1535 1 852 849
1536 7 853 852
1537 8 854 852
1538 9 855 852
1539 6 862 324
1540 6 862 472
1541 6 862 861
1542 2 869 324
1543 2 869 407
1544 1 872 869
1545 7 873 872
1546 8 874 872
1547 9 875 872
1548 2 885 613
1549 2 885 647
1550 1 888 885
1551 6 899 647
1552 6 899 798
1553 6 899 898
1554 7 920 888
1555 8 921 888
1556 9 922 888
1557 4 975 974
1558 2 980 973
1559 3 980 974
1560 4 1012 1011
1561 6 1014 862
1562 2 1014 1010
1563 3 1014 1011
1564 4 1040 1039
1565 6 1042 960
1566 2 1042 1038
1567 3 1042 1039
1568 5 1063 1039
1569 4 1064 1063
1570 2 1068 1038
1571 3 1068 1063
1572 5 1084 1011
1573 4 1085 1084
1574 6 1089 899
1575 2 1089 1010
1576 3 1089 1084
1577 5 1099 974
1578 4 1100 1099
1579 6 1101 890
1580 2 1101 973
1581 3 1101 1099
1582 4 1955 1954
1583 2 1960 849
1584 6 1960 1944
1585 3 1960 1954
1586 4 1963 1962
1587 2 1965 1409
1588 3 1965 1962
1589 4 1997 1996
1590 2 2002 1719
1591 3 2002 1996
1592 5 2028 1996
1593 4 2029 2028
1594 2 2030 1719
1595 6 2030 2009
1596 3 2030 2028
1597 5 2048 1962
1598 4 2049 2048
1599 2 2053 1409
1600 3 2053 2048
1601 5 2065 1954
1602 4 2066 2065
1603 2 2067 849
1604 6 2067 2047
1605 3 2067 2065
1606 1 2093 2090
1607 7 2094 2093
1608 8 2095 2093
1609 9 2096 2093
1610 1 2117 2114
1611 1 2150 2147
1612 7 2151 2150
1613 8 2152 2150
1614 9 2153 2150
1615 7 2190 2117
1616 8 2191 2117
1617 9 2192 2117
1618 2 1953 856
1619 2 1953 963
1620 1 1956 1953
1621 7 1957 1956
1622 8 1958 1956
1623 9 1959 1956
1624 6 1966 1428
1625 6 1966 1576
1626 6 1966 1965
1627 2 1973 1428
1628 2 1973 1511
1629 1 1976 1973
1630 7 1977 1976
1631 8 1978 1976
1632 9 1979 1976
1633 2 1989 1717
1634 2 1989 1751
1635 1 1992 1989
1636 6 2003 1751
1637 6 2003 1902
1638 6 2003 2002
1639 7 2024 1992
1640 8 2025 1992
1641 9 2026 1992
1642 4 2079 2078
1643 6 2084 840
1644 2 2084 2077
1645 3 2084 2078
1646 4 2116 2115
1647 6 2118 1966
1648 2 2118 2114
1649 3 2118 2115
1650 4 2144 2143
1651 6 2146 2064
1652 2 2146 2142
1653 3 2146 2143
1654 5 2167 2143
1655 4 2168 2167
1656 6 2172 943
1657 2 2172 2142
1658 3 2172 2167
1659 5 2188 2115
1660 4 2189 2188
1661 6 2193 2003
1662 2 2193 2114
1663 3 2193 2188
1664 5 2203 2078
1665 4 2204 2203
1666 6 2205 1994
1667 2 2205 2077
1668 3 2205 2203
1669 1 838 835
1670 2 857 309
1671 2 857 397
1672 1 860 857
1673 2 900 628
1674 2 900 656
1675 1 903 900
1676 6 905 628
1677 6 905 819
1678 7 929 903
1679 8 930 903
1680 9 931 903
1681 7 935 838
1682 8 936 838
1683 9 937 838
1684 7 946 860
1685 8 947 860
1686 9 948 860
1687 4 988 987
1688 6 993 840
1689 2 993 986
1690 3 993 987
1691 4 1022 1021
1692 6 1024 310
1693 2 1024 1020
1694 3 1024 1021
1695 4 1027 1026
1696 6 1029 398
1697 2 1029 1025
1698 3 1029 1026
1699 5 1054 1026
1700 4 1055 1054
1701 6 1059 939
1702 2 1059 1025
1703 3 1059 1054
1704 5 1075 1021
1705 4 1076 1075
1706 6 1080 914
1707 2 1080 1020
1708 3 1080 1075
1709 5 1102 987
1710 4 1103 1102
1711 6 1104 905
1712 2 1104 986
1713 3 1104 1102
1714 4 837 836
1715 3 839 836
1716 4 871 870
1717 6 876 310
1718 2 876 317
1719 3 876 870
1720 6 890 613
1721 6 890 807
1722 4 908 907
1723 2 913 630
1724 3 913 907
1725 6 914 656
1726 6 914 822
1727 6 914 913
1728 5 915 907
1729 4 916 915
1730 2 917 630
1731 6 917 890
1732 3 917 915
1733 5 933 836
1734 4 934 933
1735 3 938 933
1736 5 957 870
1737 4 958 957
1738 2 959 317
1739 6 959 408
1740 3 959 957
1741 1 976 973
1742 7 977 976
1743 8 978 976
1744 9 979 976
1745 1 1023 1020
1746 1 1033 1030
1747 7 1034 1033
1748 8 1035 1033
1749 9 1036 1033
1750 7 1077 1023
1751 8 1078 1023
1752 9 1079 1023
1753 2 1939 839
1754 2 1939 938
1755 1 1942 1939
1756 6 1944 839
1757 6 1944 980
1758 2 1961 1413
1759 2 1961 1501
1760 1 1964 1961
1761 2 2004 1732
1762 2 2004 1760
1763 1 2007 2004
1764 6 2009 1732
1765 6 2009 1923
1766 7 2033 2007
1767 8 2034 2007
1768 9 2035 2007
1769 7 2039 1942
1770 8 2040 1942
1771 9 2041 1942
1772 7 2050 1964
1773 8 2051 1964
1774 9 2052 1964
1775 4 2092 2091
1776 6 2097 1944
1777 2 2097 2090
1778 3 2097 2091
1779 4 2126 2125
1780 6 2128 1414
1781 2 2128 2124
1782 3 2128 2125
1783 4 2131 2130
1784 6 2133 1502
1785 2 2133 2129
1786 3 2133 2130
1787 5 2158 2130
1788 4 2159 2158
1789 6 2163 2043
1790 2 2163 2129
1791 3 2163 2158
1792 5 2179 2125
1793 4 2180 2179
1794 6 2184 2018
1795 2 2184 2124
1796 3 2184 2179
1797 5 2206 2091
1798 4 2207 2206
1799 6 2208 2009
1800 2 2208 2090
1801 3 2208 2206
1802 4 1941 1940
1803 2 1943 835
1804 6 1943 840
1805 3 1943 1940
1806 4 1975 1974
1807 6 1980 1414
1808 2 1980 1421
1809 3 1980 1974
1810 6 1994 1717
1811 6 1994 1911
1812 4 2012 2011
1813 2 2017 1734
1814 3 2017 2011
1815 6 2018 1760
1816 6 2018 1926
1817 6 2018 2017
1818 5 2019 2011
1819 4 2020 2019
1820 2 2021 1734
1821 6 2021 1994
1822 3 2021 2019
1823 5 2037 1940
1824 4 2038 2037
1825 2 2042 835
1826 6 2042 939
1827 3 2042 2037
1828 5 2061 1974
1829 4 2062 2061
1830 2 2063 1421
1831 6 2063 1512
1832 3 2063 2061
1833 1 2080 2077
1834 7 2081 2080
1835 8 2082 2080
1836 9 2083 2080
1837 1 2127 2124
1838 1 2137 2134
1839 7 2138 2137
1840 8 2139 2137
1841 9 2140 2137
1842 7 2181 2127
1843 8 2182 2127
1844 9 2183 2127
1845 1 280 277
1846 1 328 325
1847 7 329 328
1848 8 330 328
1849 9 331 328
1850 2 339 70
1851 2 339 98
1852 1 342 339
1853 7 343 342
1854 8 344 342
1855 9 345 342
1856 6 398 397
1857 7 414 280
1858 8 415 280
1859 9 416 280
1860 4 431 430
1861 6 433 282
1862 2 433 429
1863 3 433 430
1864 4 465 464
1865 6 467 316
1866 2 467 463
1867 3 467 464
1868 4 493 492
1869 6 498 391
1870 2 498 491
1871 3 498 492
1872 5 499 492
1873 4 500 499
1874 6 501 398
1875 2 501 491
1876 3 501 499
1877 5 517 430
1878 4 518 517
1879 6 522 71
1880 2 522 429
1881 3 522 517
1882 5 538 464
1883 4 539 538
1884 6 543 77
1885 2 543 463
1886 3 543 538
1887 4 291 290
1888 6 296 282
1889 3 296 290
1890 4 327 326
1891 3 332 326
1892 4 335 334
1893 2 337 57
1894 6 337 62
1895 3 337 334
1896 5 366 334
1897 4 367 366
1898 2 371 57
1899 6 371 71
1900 3 371 366
1901 5 388 326
1902 4 389 388
1903 3 390 388
1904 5 418 290
1905 4 419 418
1906 6 420 408
1907 3 420 418
1908 1 432 429
1909 1 453 450
1910 7 454 453
1911 8 455 453
1912 9 456 453
1913 1 489 486
1914 7 513 489
1915 8 514 489
1916 9 515 489
1917 7 519 432
1918 8 520 432
1919 9 521 432
1920 1 1384 1381
1921 2 1429 332
1922 2 1429 390
1923 1 1432 1429
1924 7 1433 1432
1925 8 1434 1432
1926 9 1435 1432
1927 2 1443 1174
1928 2 1443 1202
1929 1 1446 1443
1930 7 1447 1446
1931 8 1448 1446
1932 9 1449 1446
1933 6 1495 390
1934 6 1495 516
1935 6 1502 1501
1936 7 1518 1384
1937 8 1519 1384
1938 9 1520 1384
1939 4 1535 1534
1940 6 1537 1386
1941 2 1537 1533
1942 3 1537 1534
1943 4 1569 1568
1944 6 1571 1420
1945 2 1571 1567
1946 3 1571 1568
1947 4 1597 1596
1948 6 1602 1495
1949 2 1602 1595
1950 3 1602 1596
1951 5 1603 1596
1952 4 1604 1603
1953 6 1605 1502
1954 2 1605 1595
1955 3 1605 1603
1956 5 1621 1534
1957 4 1622 1621
1958 6 1626 1175
1959 2 1626 1533
1960 3 1626 1621
1961 5 1642 1568
1962 4 1643 1642
1963 6 1647 1181
1964 2 1647 1567
1965 3 1647 1642
1966 4 1395 1394
1967 6 1400 1386
1968 3 1400 1394
1969 4 1431 1430
1970 6 1436 316
1971 2 1436 325
1972 3 1436 1430
1973 4 1439 1438
1974 2 1441 1161
1975 6 1441 1166
1976 3 1441 1438
1977 5 1470 1438
1978 4 1471 1470
1979 2 1475 1161
1980 6 1475 1175
1981 3 1475 1470
1982 5 1492 1430
1983 4 1493 1492
1984 2 1494 325
1985 6 1494 391
1986 3 1494 1492
1987 5 1522 1394
1988 4 1523 1522
1989 6 1524 1512
1990 3 1524 1522
1991 1 1536 1533
1992 1 1557 1554
1993 7 1558 1557
1994 8 1559 1557
1995 9 1560 1557
1996 1 1593 1590
1997 7 1617 1593
1998 8 1618 1593
1999 9 1619 1593
2000 7 1623 1536
2001 8 1624 1536
2002 9 1625 1536
2003 4 279 278
2004 3 281 278
2005 4 313 312
2006 3 315 312
2007 6 316 315
2008 4 350 349
2009 2 352 72
2010 6 352 77
2011 3 352 349
2012 5 375 349
2013 4 376 375
2014 2 380 72
2015 6 380 86
2016 3 380 375
2017 5 399 312
2018 4 400 399
2019 6 404 387
2020 3 404 399
2021 5 412 278
2022 4 413 412
2023 3 417 412
2024 1 445 442
2025 7 446 445
2026 8 447 445
2027 9 448 445
2028 1 466 463
2029 1 476 473
2030 7 504 476
2031 8 505 476
2032 9 506 476
2033 7 540 466
2034 8 541 466
2035 9 542 466
2036 1 292 289
2037 7 293 292
2038 8 294 292
2039 9 295 292
2040 1 314 311
2041 2 354 85
2042 2 354 89
2043 1 357 354
2044 7 358 357
2045 8 359 357
2046 9 360 357
2047 7 401 314
2048 8 402 314
2049 9 403 314
2050 4 444 443
2051 2 449 442
2052 3 449 443
2053 4 452 451
2054 2 457 450
2055 3 457 451
2056 4 480 479
2057 2 485 478
2058 3 485 479
2059 5 508 479
2060 4 509 508
2061 2 510 478
2062 3 510 508
2063 5 529 451
2064 4 530 529
2065 6 531 62
2066 2 531 450
2067 3 531 529
2068 5 544 443
2069 4 545 544
2070 6 546 86
2071 2 546 442
2072 3 546 544
2073 4 1383 1382
2074 3 1385 1382
2075 4 1417 1416
2076 2 1419 311
2077 3 1419 1416
2078 6 1420 332
2079 6 1420 457
2080 6 1420 1419
2081 4 1454 1453
2082 2 1456 1176
2083 6 1456 1181
2084 3 1456 1453
2085 5 1479 1453
2086 4 1480 1479
2087 2 1484 1176
2088 6 1484 1190
2089 3 1484 1479
2090 6 1491 386
2091 6 1491 485
2092 5 1503 1416
2093 4 1504 1503
2094 2 1508 311
2095 6 1508 1491
2096 3 1508 1503
2097 5 1516 1382
2098 4 1517 1516
2099 3 1521 1516
2100 1 1549 1546
2101 7 1550 1549
2102 8 1551 1549
2103 9 1552 1549
2104 1 1570 1567
2105 1 1580 1577
2106 7 1608 1580
2107 8 1609 1580
2108 9 1610 1580
2109 7 1644 1570
2110 8 1645 1570
2111 9 1646 1570
2112 1 1396 1393
2113 7 1397 1396
2114 8 1398 1396
2115 9 1399 1396
2116 2 1415 315
2117 2 1415 404
2118 1 1418 1415
2119 2 1458 1189
2120 2 1458 1193
2121 1 1461 1458
2122 7 1462 1461
2123 8 1463 1461
2124 9 1464 1461
2125 7 1505 1418
2126 8 1506 1418
2127 9 1507 1418
2128 4 1548 1547
2129 2 1553 1546
2130 3 1553 1547
2131 4 1556 1555
2132 6 1561 316
2133 2 1561 1554
2134 3 1561 1555
2135 4 1584 1583
2136 6 1589 387
2137 2 1589 1582
2138 3 1589 1583
2139 5 1612 1583
2140 4 1613 1612
2141 2 1614 1582
2142 3 1614 1612
2143 5 1633 1555
2144 4 1634 1633
2145 6 1635 1166
2146 2 1635 1554
2147 3 1635 1633
2148 5 1648 1547
2149 4 1649 1648
2150 6 1650 1190
2151 2 1650 1546
2152 3 1650 1648
2153 2 829 281
2154 2 829 417
2155 1 832 829
2156 1 880 877
2157 7 881 880
2158 8 882 880
2159 9 883 880
2160 2 891 622
2161 2 891 650
2162 1 894 891
2163 7 895 894
2164 8 896 894
2165 9 897 894
2166 6 950 417
2167 6 950 477
2168 6 950 949
2169 7 966 832
2170 8 967 832
2171 9 968 832
2172 4 983 982
2173 6 985 834
2174 2 985 981
2175 3 985 982
2176 4 1017 1016
2177 6 1019 868
2178 2 1019 1015
2179 3 1019 1016
2180 4 1045 1044
2181 6 1050 943
2182 2 1050 1043
2183 3 1050 1044
2184 5 1051 1044
2185 4 1052 1051
2186 6 1053 950
2187 2 1053 1043
2188 3 1053 1051
2189 5 1069 982
2190 4 1070 1069
2191 6 1074 623
2192 2 1074 981
2193 3 1074 1069
2194 5 1090 1016
2195 4 1091 1090
2196 6 1095 629
2197 2 1095 1015
2198 3 1095 1090
2199 6 834 281
2200 6 834 449
2201 4 843 842
2202 2 848 289
2203 6 848 834
2204 3 848 842
2205 4 879 878
2206 3 884 878
2207 4 887 886
2208 2 889 609
2209 6 889 614
2210 3 889 886
2211 5 918 886
2212 4 919 918
2213 2 923 609
2214 6 923 623
2215 3 923 918
2216 5 940 878
2217 4 941 940
2218 3 942 940
2219 6 960 407
2220 6 960 510
2221 5 970 842
2222 4 971 970
2223 2 972 289
2224 6 972 960
2225 3 972 970
2226 1 984 981
2227 1 1005 1002
2228 7 1006 1005
2229 8 1007 1005
2230 9 1008 1005
2231 1 1041 1038
2232 7 1065 1041
2233 8 1066 1041
2234 9 1067 1041
2235 7 1071 984
2236 8 1072 984
2237 9 1073 984
2238 2 1933 1385
2239 2 1933 1521
2240 1 1936 1933
2241 2 1981 884
2242 2 1981 942
2243 1 1984 1981
2244 7 1985 1984
2245 8 1986 1984
2246 9 1987 1984
2247 2 1995 1726
2248 2 1995 1754
2249 1 1998 1995
2250 7 1999 1998
2251 8 2000 1998
2252 9 2001 1998
2253 6 2047 942
2254 6 2047 1068
2255 6 2054 1521
2256 6 2054 1581
2257 6 2054 2053
2258 7 2070 1936
2259 8 2071 1936
2260 9 2072 1936
2261 4 2087 2086
2262 6 2089 1938
2263 2 2089 2085
2264 3 2089 2086
2265 4 2121 2120
2266 6 2123 1972
2267 2 2123 2119
2268 3 2123 2120
2269 4 2149 2148
2270 6 2154 2047
2271 2 2154 2147
2272 3 2154 2148
2273 5 2155 2148
2274 4 2156 2155
2275 6 2157 2054
2276 2 2157 2147
2277 3 2157 2155
2278 5 2173 2086
2279 4 2174 2173
2280 6 2178 1727
2281 2 2178 2085
2282 3 2178 2173
2283 5 2194 2120
2284 4 2195 2194
2285 6 2199 1733
2286 2 2199 2119
2287 3 2199 2194
2288 6 1938 1385
2289 6 1938 1553
2290 4 1947 1946
2291 2 1952 1393
2292 6 1952 1938
2293 3 1952 1946
2294 4 1983 1982
2295 6 1988 868
2296 2 1988 877
2297 3 1988 1982
2298 4 1991 1990
2299 2 1993 1713
2300 6 1993 1718
2301 3 1993 1990
2302 5 2022 1990
2303 4 2023 2022
2304 2 2027 1713
2305 6 2027 1727
2306 3 2027 2022
2307 5 2044 1982
2308 4 2045 2044
2309 2 2046 877
2310 6 2046 943
2311 3 2046 2044
2312 6 2064 1511
2313 6 2064 1614
2314 5 2074 1946
2315 4 2075 2074
2316 2 2076 1393
2317 6 2076 2064
2318 3 2076 2074
2319 1 2088 2085
2320 1 2109 2106
2321 7 2110 2109
2322 8 2111 2109
2323 9 2112 2109
2324 1 2145 2142
2325 7 2169 2145
2326 8 2170 2145
2327 9 2171 2145
2328 7 2175 2088
2329 8 2176 2088
2330 9 2177 2088
2331 4 831 830
2332 2 833 277
2333 6 833 282
2334 3 833 830
2335 4 865 864
2336 3 867 864
2337 6 868 867
2338 4 902 901
2339 2 904 624
2340 6 904 629
2341 3 904 901
2342 5 927 901
2343 4 928 927
2344 2 932 624
2345 6 932 638
2346 3 932 927
2347 5 951 864
2348 4 952 951
2349 6 956 939
2350 3 956 951
2351 5 964 830
2352 4 965 964
2353 2 969 277
2354 6 969 398
2355 3 969 964
2356 1 997 994
2357 7 998 997
2358 8 999 997
2359 9 1000 997
2360 1 1018 1015
2361 1 1028 1025
2362 7 1056 1028
2363 8 1057 1028
2364 9 1058 1028
2365 7 1092 1018
2366 8 1093 1018
2367 9 1094 1018
2368 2 841 296
2369 2 841 420
2370 1 844 841
2371 7 845 844
2372 8 846 844
2373 9 847 844
2374 1 866 863
2375 2 906 637
2376 2 906 641
2377 1 909 906
2378 7 910 909
2379 8 911 909
2380 9 912 909
2381 7 953 866
2382 8 954 866
2383 9 955 866
2384 4 996 995
2385 6 1001 282
2386 2 1001 994
2387 3 1001 995
2388 4 1004 1003
2389 2 1009 1002
2390 3 1009 1003
2391 4 1032 1031
2392 2 1037 1030
2393 3 1037 1031
2394 5 1060 1031
2395 4 1061 1060
2396 6 1062 408
2397 2 1062 1030
2398 3 1062 1060
2399 5 1081 1003
2400 4 1082 1081
2401 6 1083 614
2402 2 1083 1002
2403 3 1083 1081
2404 5 1096 995
2405 4 1097 1096
2406 6 1098 638
2407 2 1098 994
2408 3 1098 1096
2409 4 1935 1934
2410 2 1937 1381
2411 6 1937 1386
2412 3 1937 1934
2413 4 1969 1968
2414 2 1971 863
2415 3 1971 1968
2416 6 1972 884
2417 6 1972 1009
2418 6 1972 1971
2419 4 2006 2005
2420 2 2008 1728
2421 6 2008 1733
2422 3 2008 2005
2423 5 2031 2005
2424 4 2032 2031
2425 2 2036 1728
2426 6 2036 1742
2427 3 2036 2031
2428 6 2043 938
2429 6 2043 1037
2430 5 2055 1968
2431 4 2056 2055
2432 2 2060 863
2433 6 2060 2043
2434 3 2060 2055
2435 5 2068 1934
2436 4 2069 2068
2437 2 2073 1381
2438 6 2073 1502
2439 3 2073 2068
2440 1 2101 2098
2441 7 2102 2101
2442 8 2103 2101
2443 9 2104 2101
2444 1 2122 2119
2445 1 2132 2129
2446 7 2160 2132
2447 8 2161 2132
2448 9 2162 2132
2449 7 2196 2122
2450 8 2197 2122
2451 9 2198 2122
2452 2 1945 1400
2453 2 1945 1524
2454 1 1948 1945
2455 7 1949 1948
2456 8 1950 1948
2457 9 1951 1948
2458 2 1967 867
2459 2 1967 956
2460 1 1970 1967
2461 2 2010 1741
2462 2 2010 1745
2463 1 2013 2010
2464 7 2014 2013
2465 8 2015 2013
2466 9 2016 2013
2467 7 2057 1970
2468 8 2058 1970
2469 9 2059 1970
2470 4 2100 2099
2471 6 2105 1386
2472 2 2105 2098
2473 3 2105 2099
2474 4 2108 2107
2475 6 2113 868
2476 2 2113 2106
2477 3 2113 2107
2478 4 2136 2135
2479 6 2141 939
2480 2 2141 2134
2481 3 2141 2135
2482 5 2164 2135
2483 4 2165 2164
2484 6 2166 1512
2485 2 2166 2134
2486 3 2166 2164
2487 5 2185 2107
2488 4 2186 2185
2489 6 2187 1718
2490 2 2187 2106
2491 3 2187 2185
2492 5 2200 2099
2493 4 2201 2200
2494 6 2202 1742
2495 2 2202 2098
2496 3 2202 2200

Angles

1 5 28 22 23
2 4 133 22 23
3 3 133 22 28
4 8 22 28 12
5 7 1125 28 12
6 6 1125 28 22
7 5 33 30 31
8 4 116 30 31
9 3 116 30 33
10 8 30 33 34
11 6 581 33 30
12 7 581 33 34
13 5 70 64 65
14 4 96 64 65
15 3 96 64 70
16 8 64 70 71
17 6 339 70 64
18 7 339 70 71
19 4 64 96 97
20 3 64 96 98
21 5 98 96 97
22 8 96 98 77
23 7 339 98 77
24 6 339 98 96
25 4 30 116 117
26 3 30 116 121
27 5 121 116 117
28 8 116 121 122
29 6 581 121 116
30 7 581 121 122
31 4 22 133 134
32 3 22 133 135
33 5 135 133 134
34 8 133 135 115
35 7 1125 135 115
36 6 1125 135 133
37 2 165 158 161
38 2 276 158 161
39 1 165 158 276
40 10 158 161 162
41 11 158 161 163
42 12 158 161 164
43 13 162 161 163
44 14 162 161 164
45 15 163 161 164
46 2 186 182 185
47 2 261 182 185
48 1 186 182 261
49 10 182 185 258
50 11 182 185 259
51 12 182 185 260
52 13 258 185 259
53 14 258 185 260
54 15 259 185 260
55 2 222 215 218
56 2 225 215 218
57 1 222 215 225
58 10 215 218 219
59 11 215 218 220
60 12 215 218 221
61 13 219 218 220
62 14 219 218 221
63 15 220 218 221
64 2 1132 21 24
65 2 1239 21 24
66 1 1132 21 1239
67 10 21 24 25
68 11 21 24 26
69 12 21 24 27
70 13 25 24 26
71 14 25 24 27
72 15 26 24 27
73 9 33 34 186
74 9 33 34 600
75 9 33 34 748
76 9 186 34 600
77 9 186 34 748
78 9 600 34 748
79 2 600 41 44
80 2 683 41 44
81 1 600 41 683
82 10 41 44 45
83 11 41 44 46
84 12 41 44 47
85 13 45 44 46
86 14 45 44 47
87 15 46 44 47
88 2 337 57 60
89 2 371 57 60
90 1 337 57 371
91 10 57 60 92
92 11 57 60 93
93 12 57 60 94
94 13 92 60 93
95 14 92 60 94
96 15 93 60 94
97 9 70 71 261
98 9 70 71 371
99 9 70 71 522
100 9 261 71 371
101 9 261 71 522
102 9 371 71 522
103 5 152 146 147
104 4 271 146 147
105 3 271 146 152
106 6 145 152 146
107 7 145 152 1116
108 8 146 152 1116
109 5 186 183 184
110 4 256 183 184
111 3 256 183 186
112 7 182 186 34
113 8 183 186 34
114 6 182 186 183
115 5 214 211 212
116 4 235 211 212
117 3 235 211 214
118 7 210 214 132
119 8 211 214 132
120 6 210 214 211
121 4 211 235 236
122 3 211 235 240
123 5 240 235 236
124 6 210 240 235
125 7 210 240 1219
126 8 235 240 1219
127 4 183 256 257
128 3 183 256 261
129 5 261 256 257
130 7 182 261 71
131 8 256 261 71
132 6 182 261 256
133 4 146 271 272
134 3 146 271 273
135 5 273 271 272
136 7 145 273 62
137 8 271 273 62
138 6 145 273 271
139 5 1132 1126 1127
140 4 1237 1126 1127
141 3 1237 1126 1132
142 7 21 1132 1116
143 6 21 1132 1126
144 8 1126 1132 1116
145 5 1137 1134 1135
146 4 1220 1134 1135
147 3 1220 1134 1137
148 8 1134 1137 1138
149 6 1685 1137 1134
150 7 1685 1137 1138
151 5 1174 1168 1169
152 4 1200 1168 1169
153 3 1200 1168 1174
154 8 1168 1174 1175
155 6 1443 1174 1168
156 7 1443 1174 1175
157 4 1168 1200 1201
158 3 1168 1200 1202
159 5 1202 1200 1201
160 8 1200 1202 1181
161 7 1443 1202 1181
162 6 1443 1202 1200
163 4 1134 1220 1221
164 3 1134 1220 1225
165 5 1225 1220 1221
166 8 1220 1225 1226
167 6 1685 1225 1220
168 7 1685 1225 1226
169 4 1126 1237 1238
170 3 1126 1237 1239
171 5 1239 1237 1238
172 7 21 1239 1219
173 6 21 1239 1237
174 8 1237 1239 1219
175 2 1269 1262 1265
176 2 1380 1262 1265
177 1 1269 1262 1380
178 10 1262 1265 1266
179 11 1262 1265 1267
180 12 1262 1265 1268
181 13 1266 1265 1267
182 14 1266 1265 1268
183 15 1267 1265 1268
184 2 1290 1286 1289
185 2 1365 1286 1289
186 1 1290 1286 1365
187 10 1286 1289 1362
188 11 1286 1289 1363
189 12 1286 1289 1364
190 13 1362 1289 1363
191 14 1362 1289 1364
192 15 1363 1289 1364
193 2 1326 1319 1322
194 2 1329 1319 1322
195 1 1326 1319 1329
196 10 1319 1322 1323
197 11 1319 1322 1324
198 12 1319 1322 1325
199 13 1323 1322 1324
200 14 1323 1322 1325
201 15 1324 1322 1325
202 1 28 1125 135
203 2 28 1125 1128
204 2 135 1125 1128
205 10 1125 1128 1129
206 11 1125 1128 1130
207 12 1125 1128 1131
208 13 1129 1128 1130
209 14 1129 1128 1131
210 15 1130 1128 1131
211 9 1137 1138 1290
212 9 1137 1138 1704
213 9 1137 1138 1852
214 9 1290 1138 1704
215 9 1290 1138 1852
216 9 1704 1138 1852
217 2 1704 1145 1148
218 2 1787 1145 1148
219 1 1704 1145 1787
220 10 1145 1148 1149
221 11 1145 1148 1150
222 12 1145 1148 1151
223 13 1149 1148 1150
224 14 1149 1148 1151
225 15 1150 1148 1151
226 2 1441 1161 1164
227 2 1475 1161 1164
228 1 1441 1161 1475
229 10 1161 1164 1196
230 11 1161 1164 1197
231 12 1161 1164 1198
232 13 1196 1164 1197
233 14 1196 1164 1198
234 15 1197 1164 1198
235 9 1174 1175 1365
236 9 1174 1175 1475
237 9 1174 1175 1626
238 9 1365 1175 1475
239 9 1365 1175 1626
240 9 1475 1175 1626
241 5 1256 1250 1251
242 4 1375 1250 1251
243 3 1375 1250 1256
244 7 1249 1256 12
245 8 1250 1256 12
246 6 1249 1256 1250
247 5 1290 1287 1288
248 4 1360 1287 1288
249 3 1360 1287 1290
250 7 1286 1290 1138
251 8 1287 1290 1138
252 6 1286 1290 1287
253 5 1318 1315 1316
254 4 1339 1315 1316
255 3 1339 1315 1318
256 7 1314 1318 1236
257 8 1315 1318 1236
258 6 1314 1318 1315
259 4 1315 1339 1340
260 3 1315 1339 1344
261 5 1344 1339 1340
262 7 1314 1344 115
263 8 1339 1344 115
264 6 1314 1344 1339
265 4 1287 1360 1361
266 3 1287 1360 1365
267 5 1365 1360 1361
268 7 1286 1365 1175
269 8 1360 1365 1175
270 6 1286 1365 1360
271 4 1250 1375 1376
272 3 1250 1375 1377
273 5 1377 1375 1376
274 7 1249 1377 1166
275 8 1375 1377 1166
276 6 1249 1377 1375
277 2 1115 7 10
278 2 1214 7 10
279 1 1115 7 1214
280 10 7 10 107
281 11 7 10 108
282 12 7 10 109
283 13 107 10 108
284 14 107 10 109
285 15 108 10 109
286 9 28 12 165
287 9 28 12 1115
288 9 28 12 1256
289 9 165 12 1115
290 9 165 12 1256
291 9 1115 12 1256
292 2 585 29 32
293 2 673 29 32
294 1 585 29 673
295 10 29 32 118
296 11 29 32 119
297 12 29 32 120
298 13 118 32 119
299 14 118 32 120
300 15 119 32 120
301 2 352 72 75
302 2 380 72 75
303 1 352 72 380
304 10 72 75 101
305 11 72 75 102
306 12 72 75 103
307 13 101 75 102
308 14 101 75 103
309 15 102 75 103
310 9 98 77 276
311 9 98 77 352
312 9 98 77 543
313 9 276 77 352
314 9 276 77 543
315 9 352 77 543
316 5 165 159 160
317 4 274 159 160
318 3 274 159 165
319 7 158 165 12
320 8 159 165 12
321 6 158 165 159
322 5 196 193 194
323 4 247 193 194
324 3 247 193 196
325 6 192 196 193
326 7 192 196 586
327 8 193 196 586
328 5 201 198 199
329 4 226 198 199
330 3 226 198 201
331 6 197 201 198
332 7 197 201 674
333 8 198 201 674
334 4 198 226 227
335 3 198 226 231
336 5 231 226 227
337 7 197 231 111
338 8 226 231 111
339 6 197 231 226
340 4 193 247 248
341 3 193 247 252
342 5 252 247 248
343 7 192 252 86
344 8 247 252 86
345 6 192 252 247
346 4 159 274 275
347 3 159 274 276
348 5 276 274 275
349 7 158 276 77
350 8 274 276 77
351 6 158 276 274
352 5 11 8 9
353 4 105 8 9
354 3 105 8 11
355 6 1111 11 8
356 8 8 11 1116
357 7 1111 11 1116
358 5 48 42 43
359 4 129 42 43
360 3 129 42 48
361 8 42 48 586
362 6 593 48 42
363 7 593 48 586
364 9 89 62 273
365 9 89 62 337
366 9 89 62 531
367 9 273 62 337
368 9 273 62 531
369 9 337 62 531
370 5 85 79 80
371 4 87 79 80
372 3 87 79 85
373 8 79 85 86
374 6 354 85 79
375 7 354 85 86
376 9 85 86 252
377 9 85 86 380
378 9 85 86 546
379 9 252 86 380
380 9 252 86 546
381 9 380 86 546
382 4 79 87 88
383 3 79 87 89
384 5 89 87 88
385 8 87 89 62
386 7 354 89 62
387 6 354 89 87
388 4 8 105 106
389 3 8 105 110
390 5 110 105 106
391 6 1111 110 105
392 8 105 110 1215
393 7 1111 110 1215
394 4 42 129 130
395 3 42 129 131
396 5 131 129 130
397 6 593 131 129
398 8 129 131 684
399 7 593 131 684
400 2 152 145 148
401 2 273 145 148
402 1 152 145 273
403 10 145 148 149
404 11 145 148 150
405 12 145 148 151
406 13 149 148 150
407 14 149 148 151
408 15 150 148 151
409 2 196 192 195
410 2 252 192 195
411 1 196 192 252
412 10 192 195 249
413 11 192 195 250
414 12 192 195 251
415 13 249 195 250
416 14 249 195 251
417 15 250 195 251
418 2 209 202 205
419 2 234 202 205
420 1 209 202 234
421 10 202 205 206
422 11 202 205 207
423 12 202 205 208
424 13 206 205 207
425 14 206 205 208
426 15 207 205 208
427 1 11 1111 110
428 2 11 1111 1114
429 2 110 1111 1114
430 10 1111 1114 1211
431 11 1111 1114 1212
432 12 1111 1114 1213
433 13 1211 1114 1212
434 14 1211 1114 1213
435 15 1212 1114 1213
436 9 11 1116 152
437 9 11 1116 1132
438 9 11 1116 1269
439 9 152 1116 1132
440 9 152 1116 1269
441 9 1132 1116 1269
442 2 1689 1133 1136
443 2 1777 1133 1136
444 1 1689 1133 1777
445 10 1133 1136 1222
446 11 1133 1136 1223
447 12 1133 1136 1224
448 13 1222 1136 1223
449 14 1222 1136 1224
450 15 1223 1136 1224
451 2 1456 1176 1179
452 2 1484 1176 1179
453 1 1456 1176 1484
454 10 1176 1179 1205
455 11 1176 1179 1206
456 12 1176 1179 1207
457 13 1205 1179 1206
458 14 1205 1179 1207
459 15 1206 1179 1207
460 9 1202 1181 1380
461 9 1202 1181 1456
462 9 1202 1181 1647
463 9 1380 1181 1456
464 9 1380 1181 1647
465 9 1456 1181 1647
466 5 1269 1263 1264
467 4 1378 1263 1264
468 3 1378 1263 1269
469 7 1262 1269 1116
470 8 1263 1269 1116
471 6 1262 1269 1263
472 5 1300 1297 1298
473 4 1351 1297 1298
474 3 1351 1297 1300
475 6 1296 1300 1297
476 7 1296 1300 1690
477 8 1297 1300 1690
478 5 1305 1302 1303
479 4 1330 1302 1303
480 3 1330 1302 1305
481 6 1301 1305 1302
482 7 1301 1305 1778
483 8 1302 1305 1778
484 4 1302 1330 1331
485 3 1302 1330 1335
486 5 1335 1330 1331
487 7 1301 1335 1215
488 8 1330 1335 1215
489 6 1301 1335 1330
490 4 1297 1351 1352
491 3 1297 1351 1356
492 5 1356 1351 1352
493 7 1296 1356 1190
494 8 1351 1356 1190
495 6 1296 1356 1351
496 4 1263 1378 1379
497 3 1263 1378 1380
498 5 1380 1378 1379
499 7 1262 1380 1181
500 8 1378 1380 1181
501 6 1262 1380 1378
502 5 1115 1112 1113
503 4 1209 1112 1113
504 3 1209 1112 1115
505 7 7 1115 12
506 6 7 1115 1112
507 8 1112 1115 12
508 5 1152 1146 1147
509 4 1233 1146 1147
510 3 1233 1146 1152
511 8 1146 1152 1690
512 6 1697 1152 1146
513 7 1697 1152 1690
514 9 1193 1166 1377
515 9 1193 1166 1441
516 9 1193 1166 1635
517 9 1377 1166 1441
518 9 1377 1166 1635
519 9 1441 1166 1635
520 5 1189 1183 1184
521 4 1191 1183 1184
522 3 1191 1183 1189
523 8 1183 1189 1190
524 6 1458 1189 1183
525 7 1458 1189 1190
526 9 1189 1190 1356
527 9 1189 1190 1484
528 9 1189 1190 1650
529 9 1356 1190 1484
530 9 1356 1190 1650
531 9 1484 1190 1650
532 4 1183 1191 1192
533 3 1183 1191 1193
534 5 1193 1191 1192
535 8 1191 1193 1166
536 7 1458 1193 1166
537 6 1458 1193 1191
538 4 1112 1209 1210
539 3 1112 1209 1214
540 5 1214 1209 1210
541 7 7 1214 111
542 6 7 1214 1209
543 8 1209 1214 111
544 4 1146 1233 1234
545 3 1146 1233 1235
546 5 1235 1233 1234
547 6 1697 1235 1233
548 8 1233 1235 1788
549 7 1697 1235 1788
550 2 1256 1249 1252
551 2 1377 1249 1252
552 1 1256 1249 1377
553 10 1249 1252 1253
554 11 1249 1252 1254
555 12 1249 1252 1255
556 13 1253 1252 1254
557 14 1253 1252 1255
558 15 1254 1252 1255
559 2 1300 1296 1299
560 2 1356 1296 1299
561 1 1300 1296 1356
562 10 1296 1299 1353
563 11 1296 1299 1354
564 12 1296 1299 1355
565 13 1353 1299 1354
566 14 1353 1299 1355
567 15 1354 1299 1355
568 2 1313 1306 1309
569 2 1338 1306 1309
570 1 1313 1306 1338
571 10 1306 1309 1310
572 11 1306 1309 1311
573 12 1306 1309 1312
574 13 1310 1309 1311
575 14 1310 1309 1312
576 15 1311 1309 1312
577 5 580 574 575
578 4 685 574 575
579 3 685 574 580
580 8 574 580 564
581 7 1677 580 564
582 6 1677 580 574
583 5 585 582 583
584 4 668 582 583
585 3 668 582 585
586 6 29 585 582
587 7 29 585 586
588 8 582 585 586
589 5 622 616 617
590 4 648 616 617
591 3 648 616 622
592 8 616 622 623
593 6 891 622 616
594 7 891 622 623
595 4 616 648 649
596 3 616 648 650
597 5 650 648 649
598 8 648 650 629
599 7 891 650 629
600 6 891 650 648
601 4 582 668 669
602 3 582 668 673
603 5 673 668 669
604 6 29 673 668
605 7 29 673 674
606 8 668 673 674
607 4 574 685 686
608 3 574 685 687
609 5 687 685 686
610 8 685 687 667
611 7 1677 687 667
612 6 1677 687 685
613 2 717 710 713
614 2 828 710 713
615 1 717 710 828
616 10 710 713 714
617 11 710 713 715
618 12 710 713 716
619 13 714 713 715
620 14 714 713 716
621 15 715 713 716
622 2 738 734 737
623 2 813 734 737
624 1 738 734 813
625 10 734 737 810
626 11 734 737 811
627 12 734 737 812
628 13 810 737 811
629 14 810 737 812
630 15 811 737 812
631 2 774 767 770
632 2 777 767 770
633 1 774 767 777
634 10 767 770 771
635 11 767 770 772
636 12 767 770 773
637 13 771 770 772
638 14 771 770 773
639 15 772 770 773
640 2 1684 573 576
641 2 1791 573 576
642 1 1684 573 1791
643 10 573 576 577
644 11 573 576 578
645 12 573 576 579
646 13 577 576 578
647 14 577 576 579
648 15 578 576 579
649 9 48 586 196
650 9 48 586 585
651 9 48 586 738
652 9 196 586 585
653 9 196 586 738
654 9 585 586 738
655 1 48 593 131
656 2 48 593 596
657 2 131 593 596
658 10 593 596 597
659 11 593 596 598
660 12 593 596 599
661 13 597 596 598
662 14 597 596 599
663 15 598 596 599
664 2 889 609 612
665 2 923 609 612
666 1 889 609 923
667 10 609 612 644
668 11 609 612 645
669 12 609 612 646
670 13 644 612 645
671 14 644 612 646
672 15 645 612 646
673 9 622 623 813
674 9 622 623 923
675 9 622 623 1074
676 9 813 623 923
677 9 813 623 1074
678 9 923 623 1074
679 5 704 698 699
680 4 823 698 699
681 3 823 698 704
682 6 697 704 698
683 7 697 704 1668
684 8 698 704 1668
685 5 738 735 736
686 4 808 735 736
687 3 808 735 738
688 7 734 738 586
689 8 735 738 586
690 6 734 738 735
691 5 766 763 764
692 4 787 763 764
693 3 787 763 766
694 7 762 766 684
695 8 763 766 684
696 6 762 766 763
697 4 763 787 788
698 3 763 787 792
699 5 792 787 788
700 6 762 792 787
701 7 762 792 1771
702 8 787 792 1771
703 4 735 808 809
704 3 735 808 813
705 5 813 808 809
706 7 734 813 623
707 8 808 813 623
708 6 734 813 808
709 4 698 823 824
710 3 698 823 825
711 5 825 823 824
712 7 697 825 614
713 8 823 825 614
714 6 697 825 823
715 5 1684 1678 1679
716 4 1789 1678 1679
717 3 1789 1678 1684
718 7 573 1684 1668
719 6 573 1684 1678
720 8 1678 1684 1668
721 5 1689 1686 1687
722 4 1772 1686 1687
723 3 1772 1686 1689
724 6 1133 1689 1686
725 7 1133 1689 1690
726 8 1686 1689 1690
727 5 1726 1720 1721
728 4 1752 1720 1721
729 3 1752 1720 1726
730 8 1720 1726 1727
731 6 1995 1726 1720
732 7 1995 1726 1727
733 4 1720 1752 1753
734 3 1720 1752 1754
735 5 1754 1752 1753
736 8 1752 1754 1733
737 7 1995 1754 1733
738 6 1995 1754 1752
739 4 1686 1772 1773
740 3 1686 1772 1777
741 5 1777 1772 1773
742 6 1133 1777 1772
743 7 1133 1777 1778
744 8 1772 1777 1778
745 4 1678 1789 1790
746 3 1678 1789 1791
747 5 1791 1789 1790
748 7 573 1791 1771
749 6 573 1791 1789
750 8 1789 1791 1771
751 2 1821 1814 1817
752 2 1932 1814 1817
753 1 1821 1814 1932
754 10 1814 1817 1818
755 11 1814 1817 1819
756 12 1814 1817 1820
757 13 1818 1817 1819
758 14 1818 1817 1820
759 15 1819 1817 1820
760 2 1842 1838 1841
761 2 1917 1838 1841
762 1 1842 1838 1917
763 10 1838 1841 1914
764 11 1838 1841 1915
765 12 1838 1841 1916
766 13 1914 1841 1915
767 14 1914 1841 1916
768 15 1915 1841 1916
769 2 1878 1871 1874
770 2 1881 1871 1874
771 1 1878 1871 1881
772 10 1871 1874 1875
773 11 1871 1874 1876
774 12 1871 1874 1877
775 13 1875 1874 1876
776 14 1875 1874 1877
777 15 1876 1874 1877
778 1 580 1677 687
779 2 580 1677 1680
780 2 687 1677 1680
781 10 1677 1680 1681
782 11 1677 1680 1682
783 12 1677 1680 1683
784 13 1681 1680 1682
785 14 1681 1680 1683
786 15 1682 1680 1683
787 9 1152 1690 1300
788 9 1152 1690 1689
789 9 1152 1690 1842
790 9 1300 1690 1689
791 9 1300 1690 1842
792 9 1689 1690 1842
793 1 1152 1697 1235
794 2 1152 1697 1700
795 2 1235 1697 1700
796 10 1697 1700 1701
797 11 1697 1700 1702
798 12 1697 1700 1703
799 13 1701 1700 1702
800 14 1701 1700 1703
801 15 1702 1700 1703
802 2 1993 1713 1716
803 2 2027 1713 1716
804 1 1993 1713 2027
805 10 1713 1716 1748
806 11 1713 1716 1749
807 12 1713 1716 1750
808 13 1748 1716 1749
809 14 1748 1716 1750
810 15 1749 1716 1750
811 9 1726 1727 1917
812 9 1726 1727 2027
813 9 1726 1727 2178
814 9 1917 1727 2027
815 9 1917 1727 2178
816 9 2027 1727 2178
817 5 1808 1802 1803
818 4 1927 1802 1803
819 3 1927 1802 1808
820 7 1801 1808 564
821 8 1802 1808 564
822 6 1801 1808 1802
823 5 1842 1839 1840
824 4 1912 1839 1840
825 3 1912 1839 1842
826 7 1838 1842 1690
827 8 1839 1842 1690
828 6 1838 1842 1839
829 5 1870 1867 1868
830 4 1891 1867 1868
831 3 1891 1867 1870
832 7 1866 1870 1788
833 8 1867 1870 1788
834 6 1866 1870 1867
835 4 1867 1891 1892
836 3 1867 1891 1896
837 5 1896 1891 1892
838 7 1866 1896 667
839 8 1891 1896 667
840 6 1866 1896 1891
841 4 1839 1912 1913
842 3 1839 1912 1917
843 5 1917 1912 1913
844 7 1838 1917 1727
845 8 1912 1917 1727
846 6 1838 1917 1912
847 4 1802 1927 1928
848 3 1802 1927 1929
849 5 1929 1927 1928
850 7 1801 1929 1718
851 8 1927 1929 1718
852 6 1801 1929 1927
853 2 1667 559 562
854 2 1766 559 562
855 1 1667 559 1766
856 10 559 562 659
857 11 559 562 660
858 12 559 562 661
859 13 659 562 660
860 14 659 562 661
861 15 660 562 661
862 9 580 564 717
863 9 580 564 1667
864 9 580 564 1808
865 9 717 564 1667
866 9 717 564 1808
867 9 1667 564 1808
868 1 33 581 121
869 2 33 581 584
870 2 121 581 584
871 10 581 584 670
872 11 581 584 671
873 12 581 584 672
874 13 670 584 671
875 14 670 584 672
876 15 671 584 672
877 2 904 624 627
878 2 932 624 627
879 1 904 624 932
880 10 624 627 653
881 11 624 627 654
882 12 624 627 655
883 13 653 627 654
884 14 653 627 655
885 15 654 627 655
886 9 650 629 828
887 9 650 629 904
888 9 650 629 1095
889 9 828 629 904
890 9 828 629 1095
891 9 904 629 1095
892 5 717 711 712
893 4 826 711 712
894 3 826 711 717
895 7 710 717 564
896 8 711 717 564
897 6 710 717 711
898 5 748 745 746
899 4 799 745 746
900 3 799 745 748
901 7 744 748 34
902 8 745 748 34
903 6 744 748 745
904 5 753 750 751
905 4 778 750 751
906 3 778 750 753
907 7 749 753 122
908 8 750 753 122
909 6 749 753 750
910 4 750 778 779
911 3 750 778 783
912 5 783 778 779
913 7 749 783 663
914 8 778 783 663
915 6 749 783 778
916 4 745 799 800
917 3 745 799 804
918 5 804 799 800
919 7 744 804 638
920 8 799 804 638
921 6 744 804 799
922 4 711 826 827
923 3 711 826 828
924 5 828 826 827
925 7 710 828 629
926 8 826 828 629
927 6 710 828 826
928 5 563 560 561
929 4 657 560 561
930 3 657 560 563
931 6 1663 563 560
932 8 560 563 1668
933 7 1663 563 1668
934 5 600 594 595
935 4 681 594 595
936 3 681 594 600
937 7 41 600 34
938 8 594 600 34
939 6 41 600 594
940 9 641 614 825
941 9 641 614 889
942 9 641 614 1083
943 9 825 614 889
944 9 825 614 1083
945 9 889 614 1083
946 5 637 631 632
947 4 639 631 632
948 3 639 631 637
949 8 631 637 638
950 6 906 637 631
951 7 906 637 638
952 9 637 638 804
953 9 637 638 932
954 9 637 638 1098
955 9 804 638 932
956 9 804 638 1098
957 9 932 638 1098
958 4 631 639 640
959 3 631 639 641
960 5 641 639 640
961 8 639 641 614
962 7 906 641 614
963 6 906 641 639
964 4 560 657 658
965 3 560 657 662
966 5 662 657 658
967 6 1663 662 657
968 8 657 662 1767
969 7 1663 662 1767
970 4 594 681 682
971 3 594 681 683
972 5 683 681 682
973 7 41 683 132
974 6 41 683 681
975 8 681 683 132
976 2 704 697 700
977 2 825 697 700
978 1 704 697 825
979 10 697 700 701
980 11 697 700 702
981 12 697 700 703
982 13 701 700 702
983 14 701 700 703
984 15 702 700 703
985 2 748 744 747
986 2 804 744 747
987 1 748 744 804
988 10 744 747 801
989 11 744 747 802
990 12 744 747 803
991 13 801 747 802
992 14 801 747 803
993 15 802 747 803
994 2 761 754 757
995 2 786 754 757
996 1 761 754 786
997 10 754 757 758
998 11 754 757 759
999 12 754 757 760
1000 13 758 757 759
1001 14 758 757 760
1002 15 759 757 760
1003 1 563 1663 662
1004 2 563 1663 1666
1005 2 662 1663 1666
1006 10 1663 1666 1763
1007 11 1663 1666 1764
1008 12 1663 1666 1765
1009 13 1763 1666 1764
1010 14 1763 1666 1765
1011 15 1764 1666 1765
1012 9 563 1668 704
1013 9 563 1668 1684
1014 9 563 1668 1821
1015 9 704 1668 1684
1016 9 704 1668 1821
1017 9 1684 1668 1821
1018 1 1137 1685 1225
1019 2 1137 1685 1688
1020 2 1225 1685 1688
1021 10 1685 1688 1774
1022 11 1685 1688 1775
1023 12 1685 1688 1776
1024 13 1774 1688 1775
1025 14 1774 1688 1776
1026 15 1775 1688 1776
1027 2 2008 1728 1731
1028 2 2036 1728 1731
1029 1 2008 1728 2036
1030 10 1728 1731 1757
1031 11 1728 1731 1758
1032 12 1728 1731 1759
1033 13 1757 1731 1758
1034 14 1757 1731 1759
1035 15 1758 1731 1759
1036 9 1754 1733 1932
1037 9 1754 1733 2008
1038 9 1754 1733 2199
1039 9 1932 1733 2008
1040 9 1932 1733 2199
1041 9 2008 1733 2199
1042 5 1821 1815 1816
1043 4 1930 1815 1816
1044 3 1930 1815 1821
1045 7 1814 1821 1668
1046 8 1815 1821 1668
1047 6 1814 1821 1815
1048 5 1852 1849 1850
1049 4 1903 1849 1850
1050 3 1903 1849 1852
1051 7 1848 1852 1138
1052 8 1849 1852 1138
1053 6 1848 1852 1849
1054 5 1857 1854 1855
1055 4 1882 1854 1855
1056 3 1882 1854 1857
1057 7 1853 1857 1226
1058 8 1854 1857 1226
1059 6 1853 1857 1854
1060 4 1854 1882 1883
1061 3 1854 1882 1887
1062 5 1887 1882 1883
1063 7 1853 1887 1767
1064 8 1882 1887 1767
1065 6 1853 1887 1882
1066 4 1849 1903 1904
1067 3 1849 1903 1908
1068 5 1908 1903 1904
1069 7 1848 1908 1742
1070 8 1903 1908 1742
1071 6 1848 1908 1903
1072 4 1815 1930 1931
1073 3 1815 1930 1932
1074 5 1932 1930 1931
1075 7 1814 1932 1733
1076 8 1930 1932 1733
1077 6 1814 1932 1930
1078 5 1667 1664 1665
1079 4 1761 1664 1665
1080 3 1761 1664 1667
1081 7 559 1667 564
1082 6 559 1667 1664
1083 8 1664 1667 564
1084 5 1704 1698 1699
1085 4 1785 1698 1699
1086 3 1785 1698 1704
1087 7 1145 1704 1138
1088 8 1698 1704 1138
1089 6 1145 1704 1698
1090 9 1745 1718 1929
1091 9 1745 1718 1993
1092 9 1745 1718 2187
1093 9 1929 1718 1993
1094 9 1929 1718 2187
1095 9 1993 1718 2187
1096 5 1741 1735 1736
1097 4 1743 1735 1736
1098 3 1743 1735 1741
1099 8 1735 1741 1742
1100 6 2010 1741 1735
1101 7 2010 1741 1742
1102 9 1741 1742 1908
1103 9 1741 1742 2036
1104 9 1741 1742 2202
1105 9 1908 1742 2036
1106 9 1908 1742 2202
1107 9 2036 1742 2202
1108 4 1735 1743 1744
1109 3 1735 1743 1745
1110 5 1745 1743 1744
1111 8 1743 1745 1718
1112 7 2010 1745 1718
1113 6 2010 1745 1743
1114 4 1664 1761 1762
1115 3 1664 1761 1766
1116 5 1766 1761 1762
1117 7 559 1766 663
1118 6 559 1766 1761
1119 8 1761 1766 663
1120 4 1698 1785 1786
1121 3 1698 1785 1787
1122 5 1787 1785 1786
1123 7 1145 1787 1236
1124 6 1145 1787 1785
1125 8 1785 1787 1236
1126 2 1808 1801 1804
1127 2 1929 1801 1804
1128 1 1808 1801 1929
1129 10 1801 1804 1805
1130 11 1801 1804 1806
1131 12 1801 1804 1807
1132 13 1805 1804 1806
1133 14 1805 1804 1807
1134 15 1806 1804 1807
1135 2 1852 1848 1851
1136 2 1908 1848 1851
1137 1 1852 1848 1908
1138 10 1848 1851 1905
1139 11 1848 1851 1906
1140 12 1848 1851 1907
1141 13 1905 1851 1906
1142 14 1905 1851 1907
1143 15 1906 1851 1907
1144 2 1865 1858 1861
1145 2 1890 1858 1861
1146 1 1865 1858 1890
1147 10 1858 1861 1862
1148 11 1858 1861 1863
1149 12 1858 1861 1864
1150 13 1862 1861 1863
1151 14 1862 1861 1864
1152 15 1863 1861 1864
1153 2 557 1 4
1154 2 693 1 4
1155 1 557 1 693
1156 10 1 4 138
1157 11 1 4 139
1158 12 1 4 140
1159 13 138 4 139
1160 14 138 4 140
1161 15 139 4 140
1162 2 1160 49 52
1163 2 1218 49 52
1164 1 1160 49 1218
1165 10 49 52 53
1166 11 49 52 54
1167 12 49 52 55
1168 13 53 52 54
1169 14 53 52 55
1170 15 54 52 55
1171 2 346 63 66
1172 2 374 63 66
1173 1 346 63 374
1174 10 63 66 67
1175 11 63 66 68
1176 12 63 66 69
1177 13 67 66 68
1178 14 67 66 69
1179 15 68 66 69
1180 9 135 115 222
1181 9 135 115 1218
1182 9 135 115 1344
1183 9 222 115 1218
1184 9 222 115 1344
1185 9 1218 115 1344
1186 9 121 122 225
1187 9 121 122 693
1188 9 121 122 753
1189 9 225 122 693
1190 9 225 122 753
1191 9 693 122 753
1192 5 157 154 155
1193 4 241 154 155
1194 3 241 154 157
1195 7 153 157 6
1196 8 154 157 6
1197 6 153 157 154
1198 5 191 188 189
1199 4 262 188 189
1200 3 262 188 191
1201 7 187 191 40
1202 8 188 191 40
1203 6 187 191 188
1204 5 222 216 217
1205 4 223 216 217
1206 3 223 216 222
1207 7 215 222 115
1208 8 216 222 115
1209 6 215 222 216
1210 4 216 223 224
1211 3 216 223 225
1212 5 225 223 224
1213 7 215 225 122
1214 8 223 225 122
1215 6 215 225 223
1216 4 154 241 242
1217 3 154 241 246
1218 5 246 241 242
1219 6 153 246 241
1220 7 153 246 347
1221 8 241 246 347
1222 4 188 262 263
1223 3 188 262 267
1224 5 267 262 263
1225 6 187 267 262
1226 7 187 267 353
1227 8 262 267 353
1228 9 20 6 157
1229 9 20 6 557
1230 9 20 6 725
1231 9 157 6 557
1232 9 157 6 725
1233 9 557 6 725
1234 5 20 14 15
1235 4 142 14 15
1236 3 142 14 20
1237 8 14 20 6
1238 7 565 20 6
1239 6 565 20 14
1240 5 56 50 51
1241 4 112 50 51
1242 3 112 50 56
1243 8 50 56 1144
1244 6 1153 56 50
1245 7 1153 56 1144
1246 5 61 58 59
1247 4 90 58 59
1248 3 90 58 61
1249 6 333 61 58
1250 8 58 61 338
1251 7 333 61 338
1252 4 58 90 91
1253 3 58 90 95
1254 5 95 90 91
1255 6 333 95 90
1256 8 90 95 347
1257 7 333 95 347
1258 4 50 112 113
1259 3 50 112 114
1260 5 114 112 113
1261 6 1153 114 112
1262 8 112 114 1219
1263 7 1153 114 1219
1264 9 144 132 214
1265 9 144 132 683
1266 9 144 132 786
1267 9 214 132 683
1268 9 214 132 786
1269 9 683 132 786
1270 4 14 142 143
1271 3 14 142 144
1272 5 144 142 143
1273 8 142 144 132
1274 7 565 144 132
1275 6 565 144 142
1276 2 157 153 156
1277 2 246 153 156
1278 1 157 153 246
1279 10 153 156 243
1280 11 153 156 244
1281 12 153 156 245
1282 13 243 156 244
1283 14 243 156 245
1284 15 244 156 245
1285 2 181 174 177
1286 2 255 174 177
1287 1 181 174 255
1288 10 174 177 178
1289 11 174 177 179
1290 12 174 177 180
1291 13 178 177 179
1292 14 178 177 180
1293 15 179 177 180
1294 2 214 210 213
1295 2 240 210 213
1296 1 214 210 240
1297 10 210 213 237
1298 11 210 213 238
1299 12 210 213 239
1300 13 237 213 238
1301 14 237 213 239
1302 15 238 213 239
1303 2 1661 1105 1108
1304 2 1797 1105 1108
1305 1 1661 1105 1797
1306 10 1105 1108 1242
1307 11 1105 1108 1243
1308 12 1105 1108 1244
1309 13 1242 1108 1243
1310 14 1242 1108 1244
1311 15 1243 1108 1244
1312 1 56 1153 114
1313 2 56 1153 1156
1314 2 114 1153 1156
1315 10 1153 1156 1157
1316 11 1153 1156 1158
1317 12 1153 1156 1159
1318 13 1157 1156 1158
1319 14 1157 1156 1159
1320 15 1158 1156 1159
1321 2 1450 1167 1170
1322 2 1478 1167 1170
1323 1 1450 1167 1478
1324 10 1167 1170 1171
1325 11 1167 1170 1172
1326 12 1167 1170 1173
1327 13 1171 1170 1172
1328 14 1171 1170 1173
1329 15 1172 1170 1173
1330 9 114 1219 240
1331 9 114 1219 1239
1332 9 114 1219 1326
1333 9 240 1219 1239
1334 9 240 1219 1326
1335 9 1239 1219 1326
1336 9 1225 1226 1329
1337 9 1225 1226 1797
1338 9 1225 1226 1857
1339 9 1329 1226 1797
1340 9 1329 1226 1857
1341 9 1797 1226 1857
1342 5 1261 1258 1259
1343 4 1345 1258 1259
1344 3 1345 1258 1261
1345 7 1257 1261 1110
1346 8 1258 1261 1110
1347 6 1257 1261 1258
1348 5 1295 1292 1293
1349 4 1366 1292 1293
1350 3 1366 1292 1295
1351 7 1291 1295 1144
1352 8 1292 1295 1144
1353 6 1291 1295 1292
1354 5 1326 1320 1321
1355 4 1327 1320 1321
1356 3 1327 1320 1326
1357 7 1319 1326 1219
1358 8 1320 1326 1219
1359 6 1319 1326 1320
1360 4 1320 1327 1328
1361 3 1320 1327 1329
1362 5 1329 1327 1328
1363 7 1319 1329 1226
1364 8 1327 1329 1226
1365 6 1319 1329 1327
1366 4 1258 1345 1346
1367 3 1258 1345 1350
1368 5 1350 1345 1346
1369 6 1257 1350 1345
1370 7 1257 1350 1451
1371 8 1345 1350 1451
1372 4 1292 1366 1367
1373 3 1292 1366 1371
1374 5 1371 1366 1367
1375 6 1291 1371 1366
1376 7 1291 1371 1457
1377 8 1366 1371 1457
1378 9 1124 1110 1261
1379 9 1124 1110 1661
1380 9 1124 1110 1829
1381 9 1261 1110 1661
1382 9 1261 1110 1829
1383 9 1661 1110 1829
1384 5 1124 1118 1119
1385 4 1246 1118 1119
1386 3 1246 1118 1124
1387 8 1118 1124 1110
1388 7 1669 1124 1110
1389 6 1669 1124 1118
1390 5 1160 1154 1155
1391 4 1216 1154 1155
1392 3 1216 1154 1160
1393 7 49 1160 40
1394 8 1154 1160 40
1395 6 49 1160 1154
1396 5 1165 1162 1163
1397 4 1194 1162 1163
1398 3 1194 1162 1165
1399 6 1437 1165 1162
1400 8 1162 1165 1442
1401 7 1437 1165 1442
1402 4 1162 1194 1195
1403 3 1162 1194 1199
1404 5 1199 1194 1195
1405 6 1437 1199 1194
1406 8 1194 1199 1451
1407 7 1437 1199 1451
1408 4 1154 1216 1217
1409 3 1154 1216 1218
1410 5 1218 1216 1217
1411 7 49 1218 115
1412 6 49 1218 1216
1413 8 1216 1218 115
1414 9 1248 1236 1318
1415 9 1248 1236 1787
1416 9 1248 1236 1890
1417 9 1318 1236 1787
1418 9 1318 1236 1890
1419 9 1787 1236 1890
1420 4 1118 1246 1247
1421 3 1118 1246 1248
1422 5 1248 1246 1247
1423 8 1246 1248 1236
1424 7 1669 1248 1236
1425 6 1669 1248 1246
1426 2 1261 1257 1260
1427 2 1350 1257 1260
1428 1 1261 1257 1350
1429 10 1257 1260 1347
1430 11 1257 1260 1348
1431 12 1257 1260 1349
1432 13 1347 1260 1348
1433 14 1347 1260 1349
1434 15 1348 1260 1349
1435 2 1285 1278 1281
1436 2 1359 1278 1281
1437 1 1285 1278 1359
1438 10 1278 1281 1282
1439 11 1278 1281 1283
1440 12 1278 1281 1284
1441 13 1282 1281 1283
1442 14 1282 1281 1284
1443 15 1283 1281 1284
1444 2 1318 1314 1317
1445 2 1344 1314 1317
1446 1 1318 1314 1344
1447 10 1314 1317 1341
1448 11 1314 1317 1342
1449 12 1314 1317 1343
1450 13 1341 1317 1342
1451 14 1341 1317 1343
1452 15 1342 1317 1343
1453 5 5 2 3
1454 4 136 2 3
1455 3 136 2 5
1456 6 553 5 2
1457 8 2 5 558
1458 7 553 5 558
1459 5 39 36 37
1460 4 123 36 37
1461 3 123 36 39
1462 8 36 39 40
1463 6 1139 39 36
1464 7 1139 39 40
1465 9 39 40 191
1466 9 39 40 1160
1467 9 39 40 1285
1468 9 191 40 1160
1469 9 191 40 1285
1470 9 1160 40 1285
1471 5 76 73 74
1472 4 99 73 74
1473 3 99 73 76
1474 6 348 76 73
1475 8 73 76 353
1476 7 348 76 353
1477 4 73 99 100
1478 3 73 99 104
1479 5 104 99 100
1480 6 348 104 99
1481 8 99 104 362
1482 7 348 104 362
1483 9 128 111 231
1484 9 128 111 1214
1485 9 128 111 1313
1486 9 231 111 1214
1487 9 231 111 1313
1488 9 1214 111 1313
1489 4 36 123 124
1490 3 36 123 128
1491 5 128 123 124
1492 8 123 128 111
1493 7 1139 128 111
1494 6 1139 128 123
1495 4 2 136 137
1496 3 2 136 141
1497 5 141 136 137
1498 6 553 141 136
1499 8 136 141 674
1500 7 553 141 674
1501 2 173 166 169
1502 2 270 166 169
1503 1 173 166 270
1504 10 166 169 170
1505 11 166 169 171
1506 12 166 169 172
1507 13 170 169 171
1508 14 170 169 172
1509 15 171 169 172
1510 2 191 187 190
1511 2 267 187 190
1512 1 191 187 267
1513 10 187 190 264
1514 11 187 190 265
1515 12 187 190 266
1516 13 264 190 265
1517 14 264 190 266
1518 15 265 190 266
1519 2 201 197 200
1520 2 231 197 200
1521 1 201 197 231
1522 10 197 200 228
1523 11 197 200 229
1524 12 197 200 230
1525 13 228 200 229
1526 14 228 200 230
1527 15 229 200 230
1528 2 572 13 16
1529 2 696 13 16
1530 1 572 13 696
1531 10 13 16 17
1532 11 13 16 18
1533 12 13 16 19
1534 13 17 16 18
1535 14 17 16 19
1536 15 18 16 19
1537 2 1143 35 38
1538 2 1232 35 38
1539 1 1143 35 1232
1540 10 35 38 125
1541 11 35 38 126
1542 12 35 38 127
1543 13 125 38 126
1544 14 125 38 127
1545 15 126 38 127
1546 2 361 78 81
1547 2 365 78 81
1548 1 361 78 365
1549 10 78 81 82
1550 11 78 81 83
1551 12 78 81 84
1552 13 82 81 83
1553 14 82 81 84
1554 15 83 81 84
1555 5 173 167 168
1556 4 268 167 168
1557 3 268 167 173
1558 6 166 173 167
1559 7 166 173 558
1560 8 167 173 558
1561 5 181 175 176
1562 4 253 175 176
1563 3 253 175 181
1564 6 174 181 175
1565 7 174 181 1144
1566 8 175 181 1144
1567 5 209 203 204
1568 4 232 203 204
1569 3 232 203 209
1570 6 202 209 203
1571 7 202 209 1215
1572 8 203 209 1215
1573 4 203 232 233
1574 3 203 232 234
1575 5 234 232 233
1576 6 202 234 232
1577 7 202 234 684
1578 8 232 234 684
1579 4 175 253 254
1580 3 175 253 255
1581 5 255 253 254
1582 6 174 255 253
1583 7 174 255 338
1584 8 253 255 338
1585 4 167 268 269
1586 3 167 268 270
1587 5 270 268 269
1588 6 166 270 268
1589 7 166 270 362
1590 8 268 270 362
1591 5 1109 1106 1107
1592 4 1240 1106 1107
1593 3 1240 1106 1109
1594 6 1657 1109 1106
1595 8 1106 1109 1662
1596 7 1657 1109 1662
1597 5 1143 1140 1141
1598 4 1227 1140 1141
1599 3 1227 1140 1143
1600 6 35 1143 1140
1601 7 35 1143 1144
1602 8 1140 1143 1144
1603 9 56 1144 181
1604 9 56 1144 1143
1605 9 56 1144 1295
1606 9 181 1144 1143
1607 9 181 1144 1295
1608 9 1143 1144 1295
1609 5 1180 1177 1178
1610 4 1203 1177 1178
1611 3 1203 1177 1180
1612 6 1452 1180 1177
1613 8 1177 1180 1457
1614 7 1452 1180 1457
1615 4 1177 1203 1204
1616 3 1177 1203 1208
1617 5 1208 1203 1204
1618 6 1452 1208 1203
1619 8 1203 1208 1466
1620 7 1452 1208 1466
1621 9 110 1215 209
1622 9 110 1215 1232
1623 9 110 1215 1335
1624 9 209 1215 1232
1625 9 209 1215 1335
1626 9 1232 1215 1335
1627 4 1140 1227 1228
1628 3 1140 1227 1232
1629 5 1232 1227 1228
1630 7 35 1232 1215
1631 6 35 1232 1227
1632 8 1227 1232 1215
1633 4 1106 1240 1241
1634 3 1106 1240 1245
1635 5 1245 1240 1241
1636 6 1657 1245 1240
1637 8 1240 1245 1778
1638 7 1657 1245 1778
1639 2 1277 1270 1273
1640 2 1374 1270 1273
1641 1 1277 1270 1374
1642 10 1270 1273 1274
1643 11 1270 1273 1275
1644 12 1270 1273 1276
1645 13 1274 1273 1275
1646 14 1274 1273 1276
1647 15 1275 1273 1276
1648 2 1295 1291 1294
1649 2 1371 1291 1294
1650 1 1295 1291 1371
1651 10 1291 1294 1368
1652 11 1291 1294 1369
1653 12 1291 1294 1370
1654 13 1368 1294 1369
1655 14 1368 1294 1370
1656 15 1369 1294 1370
1657 2 1305 1301 1304
1658 2 1335 1301 1304
1659 1 1305 1301 1335
1660 10 1301 1304 1332
1661 11 1301 1304 1333
1662 12 1301 1304 1334
1663 13 1332 1304 1333
1664 14 1332 1304 1334
1665 15 1333 1304 1334
1666 2 1676 1117 1120
1667 2 1800 1117 1120
1668 1 1676 1117 1800
1669 10 1117 1120 1121
1670 11 1117 1120 1122
1671 12 1117 1120 1123
1672 13 1121 1120 1122
1673 14 1121 1120 1123
1674 15 1122 1120 1123
1675 1 39 1139 128
1676 2 39 1139 1142
1677 2 128 1139 1142
1678 10 1139 1142 1229
1679 11 1139 1142 1230
1680 12 1139 1142 1231
1681 13 1229 1142 1230
1682 14 1229 1142 1231
1683 15 1230 1142 1231
1684 2 1465 1182 1185
1685 2 1469 1182 1185
1686 1 1465 1182 1469
1687 10 1182 1185 1186
1688 11 1182 1185 1187
1689 12 1182 1185 1188
1690 13 1186 1185 1187
1691 14 1186 1185 1188
1692 15 1187 1185 1188
1693 5 1277 1271 1272
1694 4 1372 1271 1272
1695 3 1372 1271 1277
1696 6 1270 1277 1271
1697 7 1270 1277 1662
1698 8 1271 1277 1662
1699 5 1285 1279 1280
1700 4 1357 1279 1280
1701 3 1357 1279 1285
1702 7 1278 1285 40
1703 8 1279 1285 40
1704 6 1278 1285 1279
1705 5 1313 1307 1308
1706 4 1336 1307 1308
1707 3 1336 1307 1313
1708 7 1306 1313 111
1709 8 1307 1313 111
1710 6 1306 1313 1307
1711 4 1307 1336 1337
1712 3 1307 1336 1338
1713 5 1338 1336 1337
1714 6 1306 1338 1336
1715 7 1306 1338 1788
1716 8 1336 1338 1788
1717 4 1279 1357 1358
1718 3 1279 1357 1359
1719 5 1359 1357 1358
1720 6 1278 1359 1357
1721 7 1278 1359 1442
1722 8 1357 1359 1442
1723 4 1271 1372 1373
1724 3 1271 1372 1374
1725 5 1374 1372 1373
1726 6 1270 1374 1372
1727 7 1270 1374 1466
1728 8 1372 1374 1466
1729 1 5 553 141
1730 2 5 553 556
1731 2 141 553 556
1732 10 553 556 690
1733 11 553 556 691
1734 12 553 556 692
1735 13 690 556 691
1736 14 690 556 692
1737 15 691 556 692
1738 2 1712 601 604
1739 2 1770 601 604
1740 1 1712 601 1770
1741 10 601 604 605
1742 11 601 604 606
1743 12 601 604 607
1744 13 605 604 606
1745 14 605 604 607
1746 15 606 604 607
1747 2 898 615 618
1748 2 926 615 618
1749 1 898 615 926
1750 10 615 618 619
1751 11 615 618 620
1752 12 615 618 621
1753 13 619 618 620
1754 14 619 618 621
1755 15 620 618 621
1756 9 687 667 774
1757 9 687 667 1770
1758 9 687 667 1896
1759 9 774 667 1770
1760 9 774 667 1896
1761 9 1770 667 1896
1762 9 141 674 201
1763 9 141 674 673
1764 9 141 674 777
1765 9 201 674 673
1766 9 201 674 777
1767 9 673 674 777
1768 5 709 706 707
1769 4 793 706 707
1770 3 793 706 709
1771 7 705 709 558
1772 8 706 709 558
1773 6 705 709 706
1774 5 743 740 741
1775 4 814 740 741
1776 3 814 740 743
1777 7 739 743 592
1778 8 740 743 592
1779 6 739 743 740
1780 5 774 768 769
1781 4 775 768 769
1782 3 775 768 774
1783 7 767 774 667
1784 8 768 774 667
1785 6 767 774 768
1786 4 768 775 776
1787 3 768 775 777
1788 5 777 775 776
1789 7 767 777 674
1790 8 775 777 674
1791 6 767 777 775
1792 4 706 793 794
1793 3 706 793 798
1794 5 798 793 794
1795 6 705 798 793
1796 7 705 798 899
1797 8 793 798 899
1798 4 740 814 815
1799 3 740 814 819
1800 5 819 814 815
1801 6 739 819 814
1802 7 739 819 905
1803 8 814 819 905
1804 9 5 558 173
1805 9 5 558 572
1806 9 5 558 709
1807 9 173 558 572
1808 9 173 558 709
1809 9 572 558 709
1810 5 572 566 567
1811 4 694 566 567
1812 3 694 566 572
1813 7 13 572 558
1814 6 13 572 566
1815 8 566 572 558
1816 5 608 602 603
1817 4 664 602 603
1818 3 664 602 608
1819 8 602 608 1696
1820 6 1705 608 602
1821 7 1705 608 1696
1822 5 613 610 611
1823 4 642 610 611
1824 3 642 610 613
1825 6 885 613 610
1826 8 610 613 890
1827 7 885 613 890
1828 4 610 642 643
1829 3 610 642 647
1830 5 647 642 643
1831 6 885 647 642
1832 8 642 647 899
1833 7 885 647 899
1834 4 602 664 665
1835 3 602 664 666
1836 5 666 664 665
1837 6 1705 666 664
1838 8 664 666 1771
1839 7 1705 666 1771
1840 9 131 684 234
1841 9 131 684 696
1842 9 131 684 766
1843 9 234 684 696
1844 9 234 684 766
1845 9 696 684 766
1846 4 566 694 695
1847 3 566 694 696
1848 5 696 694 695
1849 7 13 696 684
1850 6 13 696 694
1851 8 694 696 684
1852 2 709 705 708
1853 2 798 705 708
1854 1 709 705 798
1855 10 705 708 795
1856 11 705 708 796
1857 12 705 708 797
1858 13 795 708 796
1859 14 795 708 797
1860 15 796 708 797
1861 2 733 726 729
1862 2 807 726 729
1863 1 733 726 807
1864 10 726 729 730
1865 11 726 729 731
1866 12 726 729 732
1867 13 730 729 731
1868 14 730 729 732
1869 15 731 729 732
1870 2 766 762 765
1871 2 792 762 765
1872 1 766 762 792
1873 10 762 765 789
1874 11 762 765 790
1875 12 762 765 791
1876 13 789 765 790
1877 14 789 765 791
1878 15 790 765 791
1879 1 1109 1657 1245
1880 2 1109 1657 1660
1881 2 1245 1657 1660
1882 10 1657 1660 1794
1883 11 1657 1660 1795
1884 12 1657 1660 1796
1885 13 1794 1660 1795
1886 14 1794 1660 1796
1887 15 1795 1660 1796
1888 1 608 1705 666
1889 2 608 1705 1708
1890 2 666 1705 1708
1891 10 1705 1708 1709
1892 11 1705 1708 1710
1893 12 1705 1708 1711
1894 13 1709 1708 1710
1895 14 1709 1708 1711
1896 15 1710 1708 1711
1897 2 2002 1719 1722
1898 2 2030 1719 1722
1899 1 2002 1719 2030
1900 10 1719 1722 1723
1901 11 1719 1722 1724
1902 12 1719 1722 1725
1903 13 1723 1722 1724
1904 14 1723 1722 1725
1905 15 1724 1722 1725
1906 9 666 1771 792
1907 9 666 1771 1791
1908 9 666 1771 1878
1909 9 792 1771 1791
1910 9 792 1771 1878
1911 9 1791 1771 1878
1912 9 1245 1778 1305
1913 9 1245 1778 1777
1914 9 1245 1778 1881
1915 9 1305 1778 1777
1916 9 1305 1778 1881
1917 9 1777 1778 1881
1918 5 1813 1810 1811
1919 4 1897 1810 1811
1920 3 1897 1810 1813
1921 7 1809 1813 1662
1922 8 1810 1813 1662
1923 6 1809 1813 1810
1924 5 1847 1844 1845
1925 4 1918 1844 1845
1926 3 1918 1844 1847
1927 7 1843 1847 1696
1928 8 1844 1847 1696
1929 6 1843 1847 1844
1930 5 1878 1872 1873
1931 4 1879 1872 1873
1932 3 1879 1872 1878
1933 7 1871 1878 1771
1934 8 1872 1878 1771
1935 6 1871 1878 1872
1936 4 1872 1879 1880
1937 3 1872 1879 1881
1938 5 1881 1879 1880
1939 7 1871 1881 1778
1940 8 1879 1881 1778
1941 6 1871 1881 1879
1942 4 1810 1897 1898
1943 3 1810 1897 1902
1944 5 1902 1897 1898
1945 6 1809 1902 1897
1946 7 1809 1902 2003
1947 8 1897 1902 2003
1948 4 1844 1918 1919
1949 3 1844 1918 1923
1950 5 1923 1918 1919
1951 6 1843 1923 1918
1952 7 1843 1923 2009
1953 8 1918 1923 2009
1954 9 1109 1662 1277
1955 9 1109 1662 1676
1956 9 1109 1662 1813
1957 9 1277 1662 1676
1958 9 1277 1662 1813
1959 9 1676 1662 1813
1960 5 1676 1670 1671
1961 4 1798 1670 1671
1962 3 1798 1670 1676
1963 7 1117 1676 1662
1964 6 1117 1676 1670
1965 8 1670 1676 1662
1966 5 1712 1706 1707
1967 4 1768 1706 1707
1968 3 1768 1706 1712
1969 7 601 1712 592
1970 8 1706 1712 592
1971 6 601 1712 1706
1972 5 1717 1714 1715
1973 4 1746 1714 1715
1974 3 1746 1714 1717
1975 6 1989 1717 1714
1976 8 1714 1717 1994
1977 7 1989 1717 1994
1978 4 1714 1746 1747
1979 3 1714 1746 1751
1980 5 1751 1746 1747
1981 6 1989 1751 1746
1982 8 1746 1751 2003
1983 7 1989 1751 2003
1984 4 1706 1768 1769
1985 3 1706 1768 1770
1986 5 1770 1768 1769
1987 7 601 1770 667
1988 6 601 1770 1768
1989 8 1768 1770 667
1990 9 1235 1788 1338
1991 9 1235 1788 1800
1992 9 1235 1788 1870
1993 9 1338 1788 1800
1994 9 1338 1788 1870
1995 9 1800 1788 1870
1996 4 1670 1798 1799
1997 3 1670 1798 1800
1998 5 1800 1798 1799
1999 7 1117 1800 1788
2000 6 1117 1800 1798
2001 8 1798 1800 1788
2002 2 1813 1809 1812
2003 2 1902 1809 1812
2004 1 1813 1809 1902
2005 10 1809 1812 1899
2006 11 1809 1812 1900
2007 12 1809 1812 1901
2008 13 1899 1812 1900
2009 14 1899 1812 1901
2010 15 1900 1812 1901
2011 2 1837 1830 1833
2012 2 1911 1830 1833
2013 1 1837 1830 1911
2014 10 1830 1833 1834
2015 11 1830 1833 1835
2016 12 1830 1833 1836
2017 13 1834 1833 1835
2018 14 1834 1833 1836
2019 15 1835 1833 1836
2020 2 1870 1866 1869
2021 2 1896 1866 1869
2022 1 1870 1866 1896
2023 10 1866 1869 1893
2024 11 1866 1869 1894
2025 12 1866 1869 1895
2026 13 1893 1869 1894
2027 14 1893 1869 1895
2028 15 1894 1869 1895
2029 5 557 554 555
2030 4 688 554 555
2031 3 688 554 557
2032 7 1 557 6
2033 6 1 557 554
2034 8 554 557 6
2035 5 591 588 589
2036 4 675 588 589
2037 3 675 588 591
2038 8 588 591 592
2039 6 1691 591 588
2040 7 1691 591 592
2041 9 591 592 743
2042 9 591 592 1712
2043 9 591 592 1837
2044 9 743 592 1712
2045 9 743 592 1837
2046 9 1712 592 1837
2047 5 628 625 626
2048 4 651 625 626
2049 3 651 625 628
2050 6 900 628 625
2051 8 625 628 905
2052 7 900 628 905
2053 4 625 651 652
2054 3 625 651 656
2055 5 656 651 652
2056 6 900 656 651
2057 8 651 656 914
2058 7 900 656 914
2059 9 680 663 783
2060 9 680 663 1766
2061 9 680 663 1865
2062 9 783 663 1766
2063 9 783 663 1865
2064 9 1766 663 1865
2065 4 588 675 676
2066 3 588 675 680
2067 5 680 675 676
2068 8 675 680 663
2069 7 1691 680 663
2070 6 1691 680 675
2071 4 554 688 689
2072 3 554 688 693
2073 5 693 688 689
2074 7 1 693 122
2075 6 1 693 688
2076 8 688 693 122
2077 2 725 718 721
2078 2 822 718 721
2079 1 725 718 822
2080 10 718 721 722
2081 11 718 721 723
2082 12 718 721 724
2083 13 722 721 723
2084 14 722 721 724
2085 15 723 721 724
2086 2 743 739 742
2087 2 819 739 742
2088 1 743 739 819
2089 10 739 742 816
2090 11 739 742 817
2091 12 739 742 818
2092 13 816 742 817
2093 14 816 742 818
2094 15 817 742 818
2095 2 753 749 752
2096 2 783 749 752
2097 1 753 749 783
2098 10 749 752 780
2099 11 749 752 781
2100 12 749 752 782
2101 13 780 752 781
2102 14 780 752 782
2103 15 781 752 782
2104 1 20 565 144
2105 2 20 565 568
2106 2 144 565 568
2107 10 565 568 569
2108 11 565 568 570
2109 12 565 568 571
2110 13 569 568 570
2111 14 569 568 571
2112 15 570 568 571
2113 2 1695 587 590
2114 2 1784 587 590
2115 1 1695 587 1784
2116 10 587 590 677
2117 11 587 590 678
2118 12 587 590 679
2119 13 677 590 678
2120 14 677 590 679
2121 15 678 590 679
2122 2 913 630 633
2123 2 917 630 633
2124 1 913 630 917
2125 10 630 633 634
2126 11 630 633 635
2127 12 630 633 636
2128 13 634 633 635
2129 14 634 633 636
2130 15 635 633 636
2131 5 725 719 720
2132 4 820 719 720
2133 3 820 719 725
2134 7 718 725 6
2135 8 719 725 6
2136 6 718 725 719
2137 5 733 727 728
2138 4 805 727 728
2139 3 805 727 733
2140 6 726 733 727
2141 7 726 733 1696
2142 8 727 733 1696
2143 5 761 755 756
2144 4 784 755 756
2145 3 784 755 761
2146 6 754 761 755
2147 7 754 761 1767
2148 8 755 761 1767
2149 4 755 784 785
2150 3 755 784 786
2151 5 786 784 785
2152 7 754 786 132
2153 8 784 786 132
2154 6 754 786 784
2155 4 727 805 806
2156 3 727 805 807
2157 5 807 805 806
2158 6 726 807 805
2159 7 726 807 890
2160 8 805 807 890
2161 4 719 820 821
2162 3 719 820 822
2163 5 822 820 821
2164 6 718 822 820
2165 7 718 822 914
2166 8 820 822 914
2167 5 1661 1658 1659
2168 4 1792 1658 1659
2169 3 1792 1658 1661
2170 7 1105 1661 1110
2171 6 1105 1661 1658
2172 8 1658 1661 1110
2173 5 1695 1692 1693
2174 4 1779 1692 1693
2175 3 1779 1692 1695
2176 6 587 1695 1692
2177 7 587 1695 1696
2178 8 1692 1695 1696
2179 9 608 1696 733
2180 9 608 1696 1695
2181 9 608 1696 1847
2182 9 733 1696 1695
2183 9 733 1696 1847
2184 9 1695 1696 1847
2185 5 1732 1729 1730
2186 4 1755 1729 1730
2187 3 1755 1729 1732
2188 6 2004 1732 1729
2189 8 1729 1732 2009
2190 7 2004 1732 2009
2191 4 1729 1755 1756
2192 3 1729 1755 1760
2193 5 1760 1755 1756
2194 6 2004 1760 1755
2195 8 1755 1760 2018
2196 7 2004 1760 2018
2197 9 662 1767 761
2198 9 662 1767 1784
2199 9 662 1767 1887
2200 9 761 1767 1784
2201 9 761 1767 1887
2202 9 1784 1767 1887
2203 4 1692 1779 1780
2204 3 1692 1779 1784
2205 5 1784 1779 1780
2206 7 587 1784 1767
2207 6 587 1784 1779
2208 8 1779 1784 1767
2209 4 1658 1792 1793
2210 3 1658 1792 1797
2211 5 1797 1792 1793
2212 7 1105 1797 1226
2213 6 1105 1797 1792
2214 8 1792 1797 1226
2215 2 1829 1822 1825
2216 2 1926 1822 1825
2217 1 1829 1822 1926
2218 10 1822 1825 1826
2219 11 1822 1825 1827
2220 12 1822 1825 1828
2221 13 1826 1825 1827
2222 14 1826 1825 1828
2223 15 1827 1825 1828
2224 2 1847 1843 1846
2225 2 1923 1843 1846
2226 1 1847 1843 1923
2227 10 1843 1846 1920
2228 11 1843 1846 1921
2229 12 1843 1846 1922
2230 13 1920 1846 1921
2231 14 1920 1846 1922
2232 15 1921 1846 1922
2233 2 1857 1853 1856
2234 2 1887 1853 1856
2235 1 1857 1853 1887
2236 10 1853 1856 1884
2237 11 1853 1856 1885
2238 12 1853 1856 1886
2239 13 1884 1856 1885
2240 14 1884 1856 1886
2241 15 1885 1856 1886
2242 1 1124 1669 1248
2243 2 1124 1669 1672
2244 2 1248 1669 1672
2245 10 1669 1672 1673
2246 11 1669 1672 1674
2247 12 1669 1672 1675
2248 13 1673 1672 1674
2249 14 1673 1672 1675
2250 15 1674 1672 1675
2251 1 591 1691 680
2252 2 591 1691 1694
2253 2 680 1691 1694
2254 10 1691 1694 1781
2255 11 1691 1694 1782
2256 12 1691 1694 1783
2257 13 1781 1694 1782
2258 14 1781 1694 1783
2259 15 1782 1694 1783
2260 2 2017 1734 1737
2261 2 2021 1734 1737
2262 1 2017 1734 2021
2263 10 1734 1737 1738
2264 11 1734 1737 1739
2265 12 1734 1737 1740
2266 13 1738 1737 1739
2267 14 1738 1737 1740
2268 15 1739 1737 1740
2269 5 1829 1823 1824
2270 4 1924 1823 1824
2271 3 1924 1823 1829
2272 7 1822 1829 1110
2273 8 1823 1829 1110
2274 6 1822 1829 1823
2275 5 1837 1831 1832
2276 4 1909 1831 1832
2277 3 1909 1831 1837
2278 7 1830 1837 592
2279 8 1831 1837 592
2280 6 1830 1837 1831
2281 5 1865 1859 1860
2282 4 1888 1859 1860
2283 3 1888 1859 1865
2284 7 1858 1865 663
2285 8 1859 1865 663
2286 6 1858 1865 1859
2287 4 1859 1888 1889
2288 3 1859 1888 1890
2289 5 1890 1888 1889
2290 7 1858 1890 1236
2291 8 1888 1890 1236
2292 6 1858 1890 1888
2293 4 1831 1909 1910
2294 3 1831 1909 1911
2295 5 1911 1909 1910
2296 6 1830 1911 1909
2297 7 1830 1911 1994
2298 8 1909 1911 1994
2299 4 1823 1924 1925
2300 3 1823 1924 1926
2301 5 1926 1924 1925
2302 6 1822 1926 1924
2303 7 1822 1926 2018
2304 8 1924 1926 2018
2305 5 304 298 299
2306 4 409 298 299
2307 3 409 298 304
2308 8 298 304 288
2309 7 1401 304 288
2310 6 1401 304 298
2311 5 309 306 307
2312 4 392 306 307
2313 3 392 306 309
2314 8 306 309 310
2315 6 857 309 306
2316 7 857 309 310
2317 5 346 340 341
2318 4 372 340 341
2319 3 372 340 346
2320 6 63 346 340
2321 7 63 346 347
2322 8 340 346 347
2323 4 340 372 373
2324 3 340 372 374
2325 5 374 372 373
2326 7 63 374 353
2327 6 63 374 372
2328 8 372 374 353
2329 4 306 392 393
2330 3 306 392 397
2331 5 397 392 393
2332 8 392 397 398
2333 6 857 397 392
2334 7 857 397 398
2335 4 298 409 410
2336 3 298 409 411
2337 5 411 409 410
2338 8 409 411 391
2339 7 1401 411 391
2340 6 1401 411 409
2341 2 441 434 437
2342 2 552 434 437
2343 1 441 434 552
2344 10 434 437 438
2345 11 434 437 439
2346 12 434 437 440
2347 13 438 437 439
2348 14 438 437 440
2349 15 439 437 440
2350 2 462 458 461
2351 2 537 458 461
2352 1 462 458 537
2353 10 458 461 534
2354 11 458 461 535
2355 12 458 461 536
2356 13 534 461 535
2357 14 534 461 536
2358 15 535 461 536
2359 2 498 491 494
2360 2 501 491 494
2361 1 498 491 501
2362 10 491 494 495
2363 11 491 494 496
2364 12 491 494 497
2365 13 495 494 496
2366 14 495 494 497
2367 15 496 494 497
2368 2 1408 297 300
2369 2 1515 297 300
2370 1 1408 297 1515
2371 10 297 300 301
2372 11 297 300 302
2373 12 297 300 303
2374 13 301 300 302
2375 14 301 300 303
2376 15 302 300 303
2377 9 309 310 462
2378 9 309 310 876
2379 9 309 310 1024
2380 9 462 310 876
2381 9 462 310 1024
2382 9 876 310 1024
2383 2 876 317 320
2384 2 959 317 320
2385 1 876 317 959
2386 10 317 320 321
2387 11 317 320 322
2388 12 317 320 323
2389 13 321 320 322
2390 14 321 320 323
2391 15 322 320 323
2392 1 61 333 95
2393 2 61 333 336
2394 2 95 333 336
2395 10 333 336 368
2396 11 333 336 369
2397 12 333 336 370
2398 13 368 336 369
2399 14 368 336 370
2400 15 369 336 370
2401 9 95 347 246
2402 9 95 347 346
2403 9 95 347 537
2404 9 246 347 346
2405 9 246 347 537
2406 9 346 347 537
2407 5 428 422 423
2408 4 547 422 423
2409 3 547 422 428
2410 6 421 428 422
2411 7 421 428 1392
2412 8 422 428 1392
2413 5 462 459 460
2414 4 532 459 460
2415 3 532 459 462
2416 7 458 462 310
2417 8 459 462 310
2418 6 458 462 459
2419 5 490 487 488
2420 4 511 487 488
2421 3 511 487 490
2422 7 486 490 408
2423 8 487 490 408
2424 6 486 490 487
2425 4 487 511 512
2426 3 487 511 516
2427 5 516 511 512
2428 6 486 516 511
2429 7 486 516 1495
2430 8 511 516 1495
2431 4 459 532 533
2432 3 459 532 537
2433 5 537 532 533
2434 7 458 537 347
2435 8 532 537 347
2436 6 458 537 532
2437 4 422 547 548
2438 3 422 547 549
2439 5 549 547 548
2440 7 421 549 338
2441 8 547 549 338
2442 6 421 549 547
2443 5 1408 1402 1403
2444 4 1513 1402 1403
2445 3 1513 1402 1408
2446 7 297 1408 1392
2447 6 297 1408 1402
2448 8 1402 1408 1392
2449 5 1413 1410 1411
2450 4 1496 1410 1411
2451 3 1496 1410 1413
2452 8 1410 1413 1414
2453 6 1961 1413 1410
2454 7 1961 1413 1414
2455 5 1450 1444 1445
2456 4 1476 1444 1445
2457 3 1476 1444 1450
2458 6 1167 1450 1444
2459 7 1167 1450 1451
2460 8 1444 1450 1451
2461 4 1444 1476 1477
2462 3 1444 1476 1478
2463 5 1478 1476 1477
2464 7 1167 1478 1457
2465 6 1167 1478 1476
2466 8 1476 1478 1457
2467 4 1410 1496 1497
2468 3 1410 1496 1501
2469 5 1501 1496 1497
2470 8 1496 1501 1502
2471 6 1961 1501 1496
2472 7 1961 1501 1502
2473 4 1402 1513 1514
2474 3 1402 1513 1515
2475 5 1515 1513 1514
2476 7 297 1515 1495
2477 6 297 1515 1513
2478 8 1513 1515 1495
2479 2 1545 1538 1541
2480 2 1656 1538 1541
2481 1 1545 1538 1656
2482 10 1538 1541 1542
2483 11 1538 1541 1543
2484 12 1538 1541 1544
2485 13 1542 1541 1543
2486 14 1542 1541 1544
2487 15 1543 1541 1544
2488 2 1566 1562 1565
2489 2 1641 1562 1565
2490 1 1566 1562 1641
2491 10 1562 1565 1638
2492 11 1562 1565 1639
2493 12 1562 1565 1640
2494 13 1638 1565 1639
2495 14 1638 1565 1640
2496 15 1639 1565 1640
2497 2 1602 1595 1598
2498 2 1605 1595 1598
2499 1 1602 1595 1605
2500 10 1595 1598 1599
2501 11 1595 1598 1600
2502 12 1595 1598 1601
2503 13 1599 1598 1600
2504 14 1599 1598 1601
2505 15 1600 1598 1601
2506 1 304 1401 411
2507 2 304 1401 1404
2508 2 411 1401 1404
2509 10 1401 1404 1405
2510 11 1401 1404 1406
2511 12 1401 1404 1407
2512 13 1405 1404 1406
2513 14 1405 1404 1407
2514 15 1406 1404 1407
2515 9 1413 1414 1566
2516 9 1413 1414 1980
2517 9 1413 1414 2128
2518 9 1566 1414 1980
2519 9 1566 1414 2128
2520 9 1980 1414 2128
2521 2 1980 1421 1424
2522 2 2063 1421 1424
2523 1 1980 1421 2063
2524 10 1421 1424 1425
2525 11 1421 1424 1426
2526 12 1421 1424 1427
2527 13 1425 1424 1426
2528 14 1425 1424 1427
2529 15 1426 1424 1427
2530 1 1165 1437 1199
2531 2 1165 1437 1440
2532 2 1199 1437 1440
2533 10 1437 1440 1472
2534 11 1437 1440 1473
2535 12 1437 1440 1474
2536 13 1472 1440 1473
2537 14 1472 1440 1474
2538 15 1473 1440 1474
2539 9 1199 1451 1350
2540 9 1199 1451 1450
2541 9 1199 1451 1641
2542 9 1350 1451 1450
2543 9 1350 1451 1641
2544 9 1450 1451 1641
2545 5 1532 1526 1527
2546 4 1651 1526 1527
2547 3 1651 1526 1532
2548 7 1525 1532 288
2549 8 1526 1532 288
2550 6 1525 1532 1526
2551 5 1566 1563 1564
2552 4 1636 1563 1564
2553 3 1636 1563 1566
2554 7 1562 1566 1414
2555 8 1563 1566 1414
2556 6 1562 1566 1563
2557 5 1594 1591 1592
2558 4 1615 1591 1592
2559 3 1615 1591 1594
2560 7 1590 1594 1512
2561 8 1591 1594 1512
2562 6 1590 1594 1591
2563 4 1591 1615 1616
2564 3 1591 1615 1620
2565 5 1620 1615 1616
2566 7 1590 1620 391
2567 8 1615 1620 391
2568 6 1590 1620 1615
2569 4 1563 1636 1637
2570 3 1563 1636 1641
2571 5 1641 1636 1637
2572 7 1562 1641 1451
2573 8 1636 1641 1451
2574 6 1562 1641 1636
2575 4 1526 1651 1652
2576 3 1526 1651 1653
2577 5 1653 1651 1652
2578 7 1525 1653 1442
2579 8 1651 1653 1442
2580 6 1525 1653 1651
2581 2 1391 283 286
2582 2 1490 283 286
2583 1 1391 283 1490
2584 10 283 286 383
2585 11 283 286 384
2586 12 283 286 385
2587 13 383 286 384
2588 14 383 286 385
2589 15 384 286 385
2590 9 304 288 441
2591 9 304 288 1391
2592 9 304 288 1532
2593 9 441 288 1391
2594 9 441 288 1532
2595 9 1391 288 1532
2596 2 861 305 308
2597 2 949 305 308
2598 1 861 305 949
2599 10 305 308 394
2600 11 305 308 395
2601 12 305 308 396
2602 13 394 308 395
2603 14 394 308 396
2604 15 395 308 396
2605 1 76 348 104
2606 2 76 348 351
2607 2 104 348 351
2608 10 348 351 377
2609 11 348 351 378
2610 12 348 351 379
2611 13 377 351 378
2612 14 377 351 379
2613 15 378 351 379
2614 9 76 353 267
2615 9 76 353 374
2616 9 76 353 552
2617 9 267 353 374
2618 9 267 353 552
2619 9 374 353 552
2620 5 441 435 436
2621 4 550 435 436
2622 3 550 435 441
2623 7 434 441 288
2624 8 435 441 288
2625 6 434 441 435
2626 5 472 469 470
2627 4 523 469 470
2628 3 523 469 472
2629 6 468 472 469
2630 7 468 472 862
2631 8 469 472 862
2632 5 477 474 475
2633 4 502 474 475
2634 3 502 474 477
2635 6 473 477 474
2636 7 473 477 950
2637 8 474 477 950
2638 4 474 502 503
2639 3 474 502 507
2640 5 507 502 503
2641 7 473 507 387
2642 8 502 507 387
2643 6 473 507 502
2644 4 469 523 524
2645 3 469 523 528
2646 5 528 523 524
2647 7 468 528 362
2648 8 523 528 362
2649 6 468 528 523
2650 4 435 550 551
2651 3 435 550 552
2652 5 552 550 551
2653 7 434 552 353
2654 8 550 552 353
2655 6 434 552 550
2656 5 287 284 285
2657 4 381 284 285
2658 3 381 284 287
2659 6 1387 287 284
2660 8 284 287 1392
2661 7 1387 287 1392
2662 5 324 318 319
2663 4 405 318 319
2664 3 405 318 324
2665 8 318 324 862
2666 6 869 324 318
2667 7 869 324 862
2668 9 61 338 255
2669 9 61 338 365
2670 9 61 338 549
2671 9 255 338 365
2672 9 255 338 549
2673 9 365 338 549
2674 5 361 355 356
2675 4 363 355 356
2676 3 363 355 361
2677 6 78 361 355
2678 7 78 361 362
2679 8 355 361 362
2680 9 104 362 270
2681 9 104 362 361
2682 9 104 362 528
2683 9 270 362 361
2684 9 270 362 528
2685 9 361 362 528
2686 4 355 363 364
2687 3 355 363 365
2688 5 365 363 364
2689 7 78 365 338
2690 6 78 365 363
2691 8 363 365 338
2692 4 284 381 382
2693 3 284 381 386
2694 5 386 381 382
2695 6 1387 386 381
2696 8 381 386 1491
2697 7 1387 386 1491
2698 4 318 405 406
2699 3 318 405 407
2700 5 407 405 406
2701 6 869 407 405
2702 8 405 407 960
2703 7 869 407 960
2704 2 428 421 424
2705 2 549 421 424
2706 1 428 421 549
2707 10 421 424 425
2708 11 421 424 426
2709 12 421 424 427
2710 13 425 424 426
2711 14 425 424 427
2712 15 426 424 427
2713 2 472 468 471
2714 2 528 468 471
2715 1 472 468 528
2716 10 468 471 525
2717 11 468 471 526
2718 12 468 471 527
2719 13 525 471 526
2720 14 525 471 527
2721 15 526 471 527
2722 2 485 478 481
2723 2 510 478 481
2724 1 485 478 510
2725 10 478 481 482
2726 11 478 481 483
2727 12 478 481 484
2728 13 482 481 483
2729 14 482 481 484
2730 15 483 481 484
2731 1 287 1387 386
2732 2 287 1387 1390
2733 2 386 1387 1390
2734 10 1387 1390 1487
2735 11 1387 1390 1488
2736 12 1387 1390 1489
2737 13 1487 1390 1488
2738 14 1487 1390 1489
2739 15 1488 1390 1489
2740 9 287 1392 428
2741 9 287 1392 1408
2742 9 287 1392 1545
2743 9 428 1392 1408
2744 9 428 1392 1545
2745 9 1408 1392 1545
2746 2 1965 1409 1412
2747 2 2053 1409 1412
2748 1 1965 1409 2053
2749 10 1409 1412 1498
2750 11 1409 1412 1499
2751 12 1409 1412 1500
2752 13 1498 1412 1499
2753 14 1498 1412 1500
2754 15 1499 1412 1500
2755 1 1180 1452 1208
2756 2 1180 1452 1455
2757 2 1208 1452 1455
2758 10 1452 1455 1481
2759 11 1452 1455 1482
2760 12 1452 1455 1483
2761 13 1481 1455 1482
2762 14 1481 1455 1483
2763 15 1482 1455 1483
2764 9 1180 1457 1371
2765 9 1180 1457 1478
2766 9 1180 1457 1656
2767 9 1371 1457 1478
2768 9 1371 1457 1656
2769 9 1478 1457 1656
2770 5 1545 1539 1540
2771 4 1654 1539 1540
2772 3 1654 1539 1545
2773 7 1538 1545 1392
2774 8 1539 1545 1392
2775 6 1538 1545 1539
2776 5 1576 1573 1574
2777 4 1627 1573 1574
2778 3 1627 1573 1576
2779 6 1572 1576 1573
2780 7 1572 1576 1966
2781 8 1573 1576 1966
2782 5 1581 1578 1579
2783 4 1606 1578 1579
2784 3 1606 1578 1581
2785 6 1577 1581 1578
2786 7 1577 1581 2054
2787 8 1578 1581 2054
2788 4 1578 1606 1607
2789 3 1578 1606 1611
2790 5 1611 1606 1607
2791 7 1577 1611 1491
2792 8 1606 1611 1491
2793 6 1577 1611 1606
2794 4 1573 1627 1628
2795 3 1573 1627 1632
2796 5 1632 1627 1628
2797 7 1572 1632 1466
2798 8 1627 1632 1466
2799 6 1572 1632 1627
2800 4 1539 1654 1655
2801 3 1539 1654 1656
2802 5 1656 1654 1655
2803 7 1538 1656 1457
2804 8 1654 1656 1457
2805 6 1538 1656 1654
2806 5 1391 1388 1389
2807 4 1485 1388 1389
2808 3 1485 1388 1391
2809 7 283 1391 288
2810 6 283 1391 1388
2811 8 1388 1391 288
2812 5 1428 1422 1423
2813 4 1509 1422 1423
2814 3 1509 1422 1428
2815 8 1422 1428 1966
2816 6 1973 1428 1422
2817 7 1973 1428 1966
2818 9 1165 1442 1359
2819 9 1165 1442 1469
2820 9 1165 1442 1653
2821 9 1359 1442 1469
2822 9 1359 1442 1653
2823 9 1469 1442 1653
2824 5 1465 1459 1460
2825 4 1467 1459 1460
2826 3 1467 1459 1465
2827 6 1182 1465 1459
2828 7 1182 1465 1466
2829 8 1459 1465 1466
2830 9 1208 1466 1374
2831 9 1208 1466 1465
2832 9 1208 1466 1632
2833 9 1374 1466 1465
2834 9 1374 1466 1632
2835 9 1465 1466 1632
2836 4 1459 1467 1468
2837 3 1459 1467 1469
2838 5 1469 1467 1468
2839 7 1182 1469 1442
2840 6 1182 1469 1467
2841 8 1467 1469 1442
2842 4 1388 1485 1486
2843 3 1388 1485 1490
2844 5 1490 1485 1486
2845 7 283 1490 387
2846 6 283 1490 1485
2847 8 1485 1490 387
2848 4 1422 1509 1510
2849 3 1422 1509 1511
2850 5 1511 1509 1510
2851 6 1973 1511 1509
2852 8 1509 1511 2064
2853 7 1973 1511 2064
2854 2 1532 1525 1528
2855 2 1653 1525 1528
2856 1 1532 1525 1653
2857 10 1525 1528 1529
2858 11 1525 1528 1530
2859 12 1525 1528 1531
2860 13 1529 1528 1530
2861 14 1529 1528 1531
2862 15 1530 1528 1531
2863 2 1576 1572 1575
2864 2 1632 1572 1575
2865 1 1576 1572 1632
2866 10 1572 1575 1629
2867 11 1572 1575 1630
2868 12 1572 1575 1631
2869 13 1629 1575 1630
2870 14 1629 1575 1631
2871 15 1630 1575 1631
2872 2 1589 1582 1585
2873 2 1614 1582 1585
2874 1 1589 1582 1614
2875 10 1582 1585 1586
2876 11 1582 1585 1587
2877 12 1582 1585 1588
2878 13 1586 1585 1587
2879 14 1586 1585 1588
2880 15 1587 1585 1588
2881 5 856 850 851
2882 4 961 850 851
2883 3 961 850 856
2884 8 850 856 840
2885 7 1953 856 840
2886 6 1953 856 850
2887 5 861 858 859
2888 4 944 858 859
2889 3 944 858 861
2890 6 305 861 858
2891 7 305 861 862
2892 8 858 861 862
2893 5 898 892 893
2894 4 924 892 893
2895 3 924 892 898
2896 6 615 898 892
2897 7 615 898 899
2898 8 892 898 899
2899 4 892 924 925
2900 3 892 924 926
2901 5 926 924 925
2902 7 615 926 905
2903 6 615 926 924
2904 8 924 926 905
2905 4 858 944 945
2906 3 858 944 949
2907 5 949 944 945
2908 6 305 949 944
2909 7 305 949 950
2910 8 944 949 950
2911 4 850 961 962
2912 3 850 961 963
2913 5 963 961 962
2914 8 961 963 943
2915 7 1953 963 943
2916 6 1953 963 961
2917 2 993 986 989
2918 2 1104 986 989
2919 1 993 986 1104
2920 10 986 989 990
2921 11 986 989 991
2922 12 986 989 992
2923 13 990 989 991
2924 14 990 989 992
2925 15 991 989 992
2926 2 1014 1010 1013
2927 2 1089 1010 1013
2928 1 1014 1010 1089
2929 10 1010 1013 1086
2930 11 1010 1013 1087
2931 12 1010 1013 1088
2932 13 1086 1013 1087
2933 14 1086 1013 1088
2934 15 1087 1013 1088
2935 2 1050 1043 1046
2936 2 1053 1043 1046
2937 1 1050 1043 1053
2938 10 1043 1046 1047
2939 11 1043 1046 1048
2940 12 1043 1046 1049
2941 13 1047 1046 1048
2942 14 1047 1046 1049
2943 15 1048 1046 1049
2944 2 1960 849 852
2945 2 2067 849 852
2946 1 1960 849 2067
2947 10 849 852 853
2948 11 849 852 854
2949 12 849 852 855
2950 13 853 852 854
2951 14 853 852 855
2952 15 854 852 855
2953 9 324 862 472
2954 9 324 862 861
2955 9 324 862 1014
2956 9 472 862 861
2957 9 472 862 1014
2958 9 861 862 1014
2959 1 324 869 407
2960 2 324 869 872
2961 2 407 869 872
2962 10 869 872 873
2963 11 869 872 874
2964 12 869 872 875
2965 13 873 872 874
2966 14 873 872 875
2967 15 874 872 875
2968 1 613 885 647
2969 2 613 885 888
2970 2 647 885 888
2971 10 885 888 920
2972 11 885 888 921
2973 12 885 888 922
2974 13 920 888 921
2975 14 920 888 922
2976 15 921 888 922
2977 9 647 899 798
2978 9 647 899 898
2979 9 647 899 1089
2980 9 798 899 898
2981 9 798 899 1089
2982 9 898 899 1089
2983 5 980 974 975
2984 4 1099 974 975
2985 3 1099 974 980
2986 6 973 980 974
2987 7 973 980 1944
2988 8 974 980 1944
2989 5 1014 1011 1012
2990 4 1084 1011 1012
2991 3 1084 1011 1014
2992 7 1010 1014 862
2993 8 1011 1014 862
2994 6 1010 1014 1011
2995 5 1042 1039 1040
2996 4 1063 1039 1040
2997 3 1063 1039 1042
2998 7 1038 1042 960
2999 8 1039 1042 960
3000 6 1038 1042 1039
3001 4 1039 1063 1064
3002 3 1039 1063 1068
3003 5 1068 1063 1064
3004 6 1038 1068 1063
3005 7 1038 1068 2047
3006 8 1063 1068 2047
3007 4 1011 1084 1085
3008 3 1011 1084 1089
3009 5 1089 1084 1085
3010 7 1010 1089 899
3011 8 1084 1089 899
3012 6 1010 1089 1084
3013 4 974 1099 1100
3014 3 974 1099 1101
3015 5 1101 1099 1100
3016 7 973 1101 890
3017 8 1099 1101 890
3018 6 973 1101 1099
3019 5 1960 1954 1955
3020 4 2065 1954 1955
3021 3 2065 1954 1960
3022 7 849 1960 1944
3023 6 849 1960 1954
3024 8 1954 1960 1944
3025 5 1965 1962 1963
3026 4 2048 1962 1963
3027 3 2048 1962 1965
3028 6 1409 1965 1962
3029 7 1409 1965 1966
3030 8 1962 1965 1966
3031 5 2002 1996 1997
3032 4 2028 1996 1997
3033 3 2028 1996 2002
3034 6 1719 2002 1996
3035 7 1719 2002 2003
3036 8 1996 2002 2003
3037 4 1996 2028 2029
3038 3 1996 2028 2030
3039 5 2030 2028 2029
3040 7 1719 2030 2009
3041 6 1719 2030 2028
3042 8 2028 2030 2009
3043 4 1962 2048 2049
3044 3 1962 2048 2053
3045 5 2053 2048 2049
3046 6 1409 2053 2048
3047 7 1409 2053 2054
3048 8 2048 2053 2054
3049 4 1954 2065 2066
3050 3 1954 2065 2067
3051 5 2067 2065 2066
3052 7 849 2067 2047
3053 6 849 2067 2065
3054 8 2065 2067 2047
3055 2 2097 2090 2093
3056 2 2208 2090 2093
3057 1 2097 2090 2208
3058 10 2090 2093 2094
3059 11 2090 2093 2095
3060 12 2090 2093 2096
3061 13 2094 2093 2095
3062 14 2094 2093 2096
3063 15 2095 2093 2096
3064 2 2118 2114 2117
3065 2 2193 2114 2117
3066 1 2118 2114 2193
3067 10 2114 2117 2190
3068 11 2114 2117 2191
3069 12 2114 2117 2192
3070 13 2190 2117 2191
3071 14 2190 2117 2192
3072 15 2191 2117 2192
3073 2 2154 2147 2150
3074 2 2157 2147 2150
3075 1 2154 2147 2157
3076 10 2147 2150 2151
3077 11 2147 2150 2152
3078 12 2147 2150 2153
3079 13 2151 2150 2152
3080 14 2151 2150 2153
3081 15 2152 2150 2153
3082 1 856 1953 963
3083 2 856 1953 1956
3084 2 963 1953 1956
3085 10 1953 1956 1957
3086 11 1953 1956 1958
3087 12 1953 1956 1959
3088 13 1957 1956 1958
3089 14 1957 1956 1959
3090 15 1958 1956 1959
3091 9 1428 1966 1576
3092 9 1428 1966 1965
3093 9 1428 1966 2118
3094 9 1576 1966 1965
3095 9 1576 1966 2118
3096 9 1965 1966 2118
3097 1 1428 1973 1511
3098 2 1428 1973 1976
3099 2 1511 1973 1976
3100 10 1973 1976 1977
3101 11 1973 1976 1978
3102 12 1973 1976 1979
3103 13 1977 1976 1978
3104 14 1977 1976 1979
3105 15 1978 1976 1979
3106 1 1717 1989 1751
3107 2 1717 1989 1992
3108 2 1751 1989 1992
3109 10 1989 1992 2024
3110 11 1989 1992 2025
3111 12 1989 1992 2026
3112 13 2024 1992 2025
3113 14 2024 1992 2026
3114 15 2025 1992 2026
3115 9 1751 2003 1902
3116 9 1751 2003 2002
3117 9 1751 2003 2193
3118 9 1902 2003 2002
3119 9 1902 2003 2193
3120 9 2002 2003 2193
3121 5 2084 2078 2079
3122 4 2203 2078 2079
3123 3 2203 2078 2084
3124 7 2077 2084 840
3125 8 2078 2084 840
3126 6 2077 2084 2078
3127 5 2118 2115 2116
3128 4 2188 2115 2116
3129 3 2188 2115 2118
3130 7 2114 2118 1966
3131 8 2115 2118 1966
3132 6 2114 2118 2115
3133 5 2146 2143 2144
3134 4 2167 2143 2144
3135 3 2167 2143 2146
3136 7 2142 2146 2064
3137 8 2143 2146 2064
3138 6 2142 2146 2143
3139 4 2143 2167 2168
3140 3 2143 2167 2172
3141 5 2172 2167 2168
3142 7 2142 2172 943
3143 8 2167 2172 943
3144 6 2142 2172 2167
3145 4 2115 2188 2189
3146 3 2115 2188 2193
3147 5 2193 2188 2189
3148 7 2114 2193 2003
3149 8 2188 2193 2003
3150 6 2114 2193 2188
3151 4 2078 2203 2204
3152 3 2078 2203 2205
3153 5 2205 2203 2204
3154 7 2077 2205 1994
3155 8 2203 2205 1994
3156 6 2077 2205 2203
3157 2 1943 835 838
3158 2 2042 835 838
3159 1 1943 835 2042
3160 10 835 838 935
3161 11 835 838 936
3162 12 835 838 937
3163 13 935 838 936
3164 14 935 838 937
3165 15 936 838 937
3166 9 856 840 993
3167 9 856 840 1943
3168 9 856 840 2084
3169 9 993 840 1943
3170 9 993 840 2084
3171 9 1943 840 2084
3172 1 309 857 397
3173 2 309 857 860
3174 2 397 857 860
3175 10 857 860 946
3176 11 857 860 947
3177 12 857 860 948
3178 13 946 860 947
3179 14 946 860 948
3180 15 947 860 948
3181 1 628 900 656
3182 2 628 900 903
3183 2 656 900 903
3184 10 900 903 929
3185 11 900 903 930
3186 12 900 903 931
3187 13 929 903 930
3188 14 929 903 931
3189 15 930 903 931
3190 9 628 905 819
3191 9 628 905 926
3192 9 628 905 1104
3193 9 819 905 926
3194 9 819 905 1104
3195 9 926 905 1104
3196 5 993 987 988
3197 4 1102 987 988
3198 3 1102 987 993
3199 7 986 993 840
3200 8 987 993 840
3201 6 986 993 987
3202 5 1024 1021 1022
3203 4 1075 1021 1022
3204 3 1075 1021 1024
3205 7 1020 1024 310
3206 8 1021 1024 310
3207 6 1020 1024 1021
3208 5 1029 1026 1027
3209 4 1054 1026 1027
3210 3 1054 1026 1029
3211 7 1025 1029 398
3212 8 1026 1029 398
3213 6 1025 1029 1026
3214 4 1026 1054 1055
3215 3 1026 1054 1059
3216 5 1059 1054 1055
3217 7 1025 1059 939
3218 8 1054 1059 939
3219 6 1025 1059 1054
3220 4 1021 1075 1076
3221 3 1021 1075 1080
3222 5 1080 1075 1076
3223 7 1020 1080 914
3224 8 1075 1080 914
3225 6 1020 1080 1075
3226 4 987 1102 1103
3227 3 987 1102 1104
3228 5 1104 1102 1103
3229 7 986 1104 905
3230 8 1102 1104 905
3231 6 986 1104 1102
3232 5 839 836 837
3233 4 933 836 837
3234 3 933 836 839
3235 6 1939 839 836
3236 8 836 839 1944
3237 7 1939 839 1944
3238 5 876 870 871
3239 4 957 870 871
3240 3 957 870 876
3241 7 317 876 310
3242 8 870 876 310
3243 6 317 876 870
3244 9 613 890 807
3245 9 613 890 917
3246 9 613 890 1101
3247 9 807 890 917
3248 9 807 890 1101
3249 9 917 890 1101
3250 5 913 907 908
3251 4 915 907 908
3252 3 915 907 913
3253 6 630 913 907
3254 7 630 913 914
3255 8 907 913 914
3256 9 656 914 822
3257 9 656 914 913
3258 9 656 914 1080
3259 9 822 914 913
3260 9 822 914 1080
3261 9 913 914 1080
3262 4 907 915 916
3263 3 907 915 917
3264 5 917 915 916
3265 7 630 917 890
3266 6 630 917 915
3267 8 915 917 890
3268 4 836 933 934
3269 3 836 933 938
3270 5 938 933 934
3271 6 1939 938 933
3272 8 933 938 2043
3273 7 1939 938 2043
3274 4 870 957 958
3275 3 870 957 959
3276 5 959 957 958
3277 7 317 959 408
3278 6 317 959 957
3279 8 957 959 408
3280 2 980 973 976
3281 2 1101 973 976
3282 1 980 973 1101
3283 10 973 976 977
3284 11 973 976 978
3285 12 973 976 979
3286 13 977 976 978
3287 14 977 976 979
3288 15 978 976 979
3289 2 1024 1020 1023
3290 2 1080 1020 1023
3291 1 1024 1020 1080
3292 10 1020 1023 1077
3293 11 1020 1023 1078
3294 12 1020 1023 1079
3295 13 1077 1023 1078
3296 14 1077 1023 1079
3297 15 1078 1023 1079
3298 2 1037 1030 1033
3299 2 1062 1030 1033
3300 1 1037 1030 1062
3301 10 1030 1033 1034
3302 11 1030 1033 1035
3303 12 1030 1033 1036
3304 13 1034 1033 1035
3305 14 1034 1033 1036
3306 15 1035 1033 1036
3307 1 839 1939 938
3308 2 839 1939 1942
3309 2 938 1939 1942
3310 10 1939 1942 2039
3311 11 1939 1942 2040
3312 12 1939 1942 2041
3313 13 2039 1942 2040
3314 14 2039 1942 2041
3315 15 2040 1942 2041
3316 9 839 1944 980
3317 9 839 1944 1960
3318 9 839 1944 2097
3319 9 980 1944 1960
3320 9 980 1944 2097
3321 9 1960 1944 2097
3322 1 1413 1961 1501
3323 2 1413 1961 1964
3324 2 1501 1961 1964
3325 10 1961 1964 2050
3326 11 1961 1964 2051
3327 12 1961 1964 2052
3328 13 2050 1964 2051
3329 14 2050 1964 2052
3330 15 2051 1964 2052
3331 1 1732 2004 1760
3332 2 1732 2004 2007
3333 2 1760 2004 2007
3334 10 2004 2007 2033
3335 11 2004 2007 2034
3336 12 2004 2007 2035
3337 13 2033 2007 2034
3338 14 2033 2007 2035
3339 15 2034 2007 2035
3340 9 1732 2009 1923
3341 9 1732 2009 2030
3342 9 1732 2009 2208
3343 9 1923 2009 2030
3344 9 1923 2009 2208
3345 9 2030 2009 2208
3346 5 2097 2091 2092
3347 4 2206 2091 2092
3348 3 2206 2091 2097
3349 7 2090 2097 1944
3350 8 2091 2097 1944
3351 6 2090 2097 2091
3352 5 2128 2125 2126
3353 4 2179 2125 2126
3354 3 2179 2125 2128
3355 7 2124 2128 1414
3356 8 2125 2128 1414
3357 6 2124 2128 2125
3358 5 2133 2130 2131
3359 4 2158 2130 2131
3360 3 2158 2130 2133
3361 7 2129 2133 1502
3362 8 2130 2133 1502
3363 6 2129 2133 2130
3364 4 2130 2158 2159
3365 3 2130 2158 2163
3366 5 2163 2158 2159
3367 7 2129 2163 2043
3368 8 2158 2163 2043
3369 6 2129 2163 2158
3370 4 2125 2179 2180
3371 3 2125 2179 2184
3372 5 2184 2179 2180
3373 7 2124 2184 2018
3374 8 2179 2184 2018
3375 6 2124 2184 2179
3376 4 2091 2206 2207
3377 3 2091 2206 2208
3378 5 2208 2206 2207
3379 7 2090 2208 2009
3380 8 2206 2208 2009
3381 6 2090 2208 2206
3382 5 1943 1940 1941
3383 4 2037 1940 1941
3384 3 2037 1940 1943
3385 7 835 1943 840
3386 6 835 1943 1940
3387 8 1940 1943 840
3388 5 1980 1974 1975
3389 4 2061 1974 1975
3390 3 2061 1974 1980
3391 7 1421 1980 1414
3392 8 1974 1980 1414
3393 6 1421 1980 1974
3394 9 1717 1994 1911
3395 9 1717 1994 2021
3396 9 1717 1994 2205
3397 9 1911 1994 2021
3398 9 1911 1994 2205
3399 9 2021 1994 2205
3400 5 2017 2011 2012
3401 4 2019 2011 2012
3402 3 2019 2011 2017
3403 6 1734 2017 2011
3404 7 1734 2017 2018
3405 8 2011 2017 2018
3406 9 1760 2018 1926
3407 9 1760 2018 2017
3408 9 1760 2018 2184
3409 9 1926 2018 2017
3410 9 1926 2018 2184
3411 9 2017 2018 2184
3412 4 2011 2019 2020
3413 3 2011 2019 2021
3414 5 2021 2019 2020
3415 7 1734 2021 1994
3416 6 1734 2021 2019
3417 8 2019 2021 1994
3418 4 1940 2037 2038
3419 3 1940 2037 2042
3420 5 2042 2037 2038
3421 7 835 2042 939
3422 6 835 2042 2037
3423 8 2037 2042 939
3424 4 1974 2061 2062
3425 3 1974 2061 2063
3426 5 2063 2061 2062
3427 7 1421 2063 1512
3428 6 1421 2063 2061
3429 8 2061 2063 1512
3430 2 2084 2077 2080
3431 2 2205 2077 2080
3432 1 2084 2077 2205
3433 10 2077 2080 2081
3434 11 2077 2080 2082
3435 12 2077 2080 2083
3436 13 2081 2080 2082
3437 14 2081 2080 2083
3438 15 2082 2080 2083
3439 2 2128 2124 2127
3440 2 2184 2124 2127
3441 1 2128 2124 2184
3442 10 2124 2127 2181
3443 11 2124 2127 2182
3444 12 2124 2127 2183
3445 13 2181 2127 2182
3446 14 2181 2127 2183
3447 15 2182 2127 2183
3448 2 2141 2134 2137
3449 2 2166 2134 2137
3450 1 2141 2134 2166
3451 10 2134 2137 2138
3452 11 2134 2137 2139
3453 12 2134 2137 2140
3454 13 2138 2137 2139
3455 14 2138 2137 2140
3456 15 2139 2137 2140
3457 2 833 277 280
3458 2 969 277 280
3459 1 833 277 969
3460 10 277 280 414
3461 11 277 280 415
3462 12 277 280 416
3463 13 414 280 415
3464 14 414 280 416
3465 15 415 280 416
3466 2 1436 325 328
3467 2 1494 325 328
3468 1 1436 325 1494
3469 10 325 328 329
3470 11 325 328 330
3471 12 325 328 331
3472 13 329 328 330
3473 14 329 328 331
3474 15 330 328 331
3475 1 70 339 98
3476 2 70 339 342
3477 2 98 339 342
3478 10 339 342 343
3479 11 339 342 344
3480 12 339 342 345
3481 13 343 342 344
3482 14 343 342 345
3483 15 344 342 345
3484 9 411 391 498
3485 9 411 391 1494
3486 9 411 391 1620
3487 9 498 391 1494
3488 9 498 391 1620
3489 9 1494 391 1620
3490 9 397 398 501
3491 9 397 398 969
3492 9 397 398 1029
3493 9 501 398 969
3494 9 501 398 1029
3495 9 969 398 1029
3496 5 433 430 431
3497 4 517 430 431
3498 3 517 430 433
3499 7 429 433 282
3500 8 430 433 282
3501 6 429 433 430
3502 5 467 464 465
3503 4 538 464 465
3504 3 538 464 467
3505 7 463 467 316
3506 8 464 467 316
3507 6 463 467 464
3508 5 498 492 493
3509 4 499 492 493
3510 3 499 492 498
3511 7 491 498 391
3512 8 492 498 391
3513 6 491 498 492
3514 4 492 499 500
3515 3 492 499 501
3516 5 501 499 500
3517 7 491 501 398
3518 8 499 501 398
3519 6 491 501 499
3520 4 430 517 518
3521 3 430 517 522
3522 5 522 517 518
3523 7 429 522 71
3524 8 517 522 71
3525 6 429 522 517
3526 4 464 538 539
3527 3 464 538 543
3528 5 543 538 539
3529 7 463 543 77
3530 8 538 543 77
3531 6 463 543 538
3532 9 296 282 433
3533 9 296 282 833
3534 9 296 282 1001
3535 9 433 282 833
3536 9 433 282 1001
3537 9 833 282 1001
3538 5 296 290 291
3539 4 418 290 291
3540 3 418 290 296
3541 8 290 296 282
3542 7 841 296 282
3543 6 841 296 290
3544 5 332 326 327
3545 4 388 326 327
3546 3 388 326 332
3547 8 326 332 1420
3548 6 1429 332 326
3549 7 1429 332 1420
3550 5 337 334 335
3551 4 366 334 335
3552 3 366 334 337
3553 7 57 337 62
3554 6 57 337 334
3555 8 334 337 62
3556 4 334 366 367
3557 3 334 366 371
3558 5 371 366 367
3559 7 57 371 71
3560 6 57 371 366
3561 8 366 371 71
3562 4 326 388 389
3563 3 326 388 390
3564 5 390 388 389
3565 6 1429 390 388
3566 8 388 390 1495
3567 7 1429 390 1495
3568 9 420 408 490
3569 9 420 408 959
3570 9 420 408 1062
3571 9 490 408 959
3572 9 490 408 1062
3573 9 959 408 1062
3574 4 290 418 419
3575 3 290 418 420
3576 5 420 418 419
3577 8 418 420 408
3578 7 841 420 408
3579 6 841 420 418
3580 2 433 429 432
3581 2 522 429 432
3582 1 433 429 522
3583 10 429 432 519
3584 11 429 432 520
3585 12 429 432 521
3586 13 519 432 520
3587 14 519 432 521
3588 15 520 432 521
3589 2 457 450 453
3590 2 531 450 453
3591 1 457 450 531
3592 10 450 453 454
3593 11 450 453 455
3594 12 450 453 456
3595 13 454 453 455
3596 14 454 453 456
3597 15 455 453 456
3598 2 490 486 489
3599 2 516 486 489
3600 1 490 486 516
3601 10 486 489 513
3602 11 486 489 514
3603 12 486 489 515
3604 13 513 489 514
3605 14 513 489 515
3606 15 514 489 515
3607 2 1937 1381 1384
3608 2 2073 1381 1384
3609 1 1937 1381 2073
3610 10 1381 1384 1518
3611 11 1381 1384 1519
3612 12 1381 1384 1520
3613 13 1518 1384 1519
3614 14 1518 1384 1520
3615 15 1519 1384 1520
3616 1 332 1429 390
3617 2 332 1429 1432
3618 2 390 1429 1432
3619 10 1429 1432 1433
3620 11 1429 1432 1434
3621 12 1429 1432 1435
3622 13 1433 1432 1434
3623 14 1433 1432 1435
3624 15 1434 1432 1435
3625 1 1174 1443 1202
3626 2 1174 1443 1446
3627 2 1202 1443 1446
3628 10 1443 1446 1447
3629 11 1443 1446 1448
3630 12 1443 1446 1449
3631 13 1447 1446 1448
3632 14 1447 1446 1449
3633 15 1448 1446 1449
3634 9 390 1495 516
3635 9 390 1495 1515
3636 9 390 1495 1602
3637 9 516 1495 1515
3638 9 516 1495 1602
3639 9 1515 1495 1602
3640 9 1501 1502 1605
3641 9 1501 1502 2073
3642 9 1501 1502 2133
3643 9 1605 1502 2073
3644 9 1605 1502 2133
3645 9 2073 1502 2133
3646 5 1537 1534 1535
3647 4 1621 1534 1535
3648 3 1621 1534 1537
3649 7 1533 1537 1386
3650 8 1534 1537 1386
3651 6 1533 1537 1534
3652 5 1571 1568 1569
3653 4 1642 1568 1569
3654 3 1642 1568 1571
3655 7 1567 1571 1420
3656 8 1568 1571 1420
3657 6 1567 1571 1568
3658 5 1602 1596 1597
3659 4 1603 1596 1597
3660 3 1603 1596 1602
3661 7 1595 1602 1495
3662 8 1596 1602 1495
3663 6 1595 1602 1596
3664 4 1596 1603 1604
3665 3 1596 1603 1605
3666 5 1605 1603 1604
3667 7 1595 1605 1502
3668 8 1603 1605 1502
3669 6 1595 1605 1603
3670 4 1534 1621 1622
3671 3 1534 1621 1626
3672 5 1626 1621 1622
3673 7 1533 1626 1175
3674 8 1621 1626 1175
3675 6 1533 1626 1621
3676 4 1568 1642 1643
3677 3 1568 1642 1647
3678 5 1647 1642 1643
3679 7 1567 1647 1181
3680 8 1642 1647 1181
3681 6 1567 1647 1642
3682 9 1400 1386 1537
3683 9 1400 1386 1937
3684 9 1400 1386 2105
3685 9 1537 1386 1937
3686 9 1537 1386 2105
3687 9 1937 1386 2105
3688 5 1400 1394 1395
3689 4 1522 1394 1395
3690 3 1522 1394 1400
3691 8 1394 1400 1386
3692 7 1945 1400 1386
3693 6 1945 1400 1394
3694 5 1436 1430 1431
3695 4 1492 1430 1431
3696 3 1492 1430 1436
3697 7 325 1436 316
3698 8 1430 1436 316
3699 6 325 1436 1430
3700 5 1441 1438 1439
3701 4 1470 1438 1439
3702 3 1470 1438 1441
3703 7 1161 1441 1166
3704 6 1161 1441 1438
3705 8 1438 1441 1166
3706 4 1438 1470 1471
3707 3 1438 1470 1475
3708 5 1475 1470 1471
3709 7 1161 1475 1175
3710 6 1161 1475 1470
3711 8 1470 1475 1175
3712 4 1430 1492 1493
3713 3 1430 1492 1494
3714 5 1494 1492 1493
3715 7 325 1494 391
3716 6 325 1494 1492
3717 8 1492 1494 391
3718 9 1524 1512 1594
3719 9 1524 1512 2063
3720 9 1524 1512 2166
3721 9 1594 1512 2063
3722 9 1594 1512 2166
3723 9 2063 1512 2166
3724 4 1394 1522 1523
3725 3 1394 1522 1524
3726 5 1524 1522 1523
3727 8 1522 1524 1512
3728 7 1945 1524 1512
3729 6 1945 1524 1522
3730 2 1537 1533 1536
3731 2 1626 1533 1536
3732 1 1537 1533 1626
3733 10 1533 1536 1623
3734 11 1533 1536 1624
3735 12 1533 1536 1625
3736 13 1623 1536 1624
3737 14 1623 1536 1625
3738 15 1624 1536 1625
3739 2 1561 1554 1557
3740 2 1635 1554 1557
3741 1 1561 1554 1635
3742 10 1554 1557 1558
3743 11 1554 1557 1559
3744 12 1554 1557 1560
3745 13 1558 1557 1559
3746 14 1558 1557 1560
3747 15 1559 1557 1560
3748 2 1594 1590 1593
3749 2 1620 1590 1593
3750 1 1594 1590 1620
3751 10 1590 1593 1617
3752 11 1590 1593 1618
3753 12 1590 1593 1619
3754 13 1617 1593 1618
3755 14 1617 1593 1619
3756 15 1618 1593 1619
3757 5 281 278 279
3758 4 412 278 279
3759 3 412 278 281
3760 6 829 281 278
3761 8 278 281 834
3762 7 829 281 834
3763 5 315 312 313
3764 4 399 312 313
3765 3 399 312 315
3766 8 312 315 316
3767 6 1415 315 312
3768 7 1415 315 316
3769 9 315 316 467
3770 9 315 316 1436
3771 9 315 316 1561
3772 9 467 316 1436
3773 9 467 316 1561
3774 9 1436 316 1561
3775 5 352 349 350
3776 4 375 349 350
3777 3 375 349 352
3778 7 72 352 77
3779 6 72 352 349
3780 8 349 352 77
3781 4 349 375 376
3782 3 349 375 380
3783 5 380 375 376
3784 7 72 380 86
3785 6 72 380 375
3786 8 375 380 86
3787 9 404 387 507
3788 9 404 387 1490
3789 9 404 387 1589
3790 9 507 387 1490
3791 9 507 387 1589
3792 9 1490 387 1589
3793 4 312 399 400
3794 3 312 399 404
3795 5 404 399 400
3796 8 399 404 387
3797 7 1415 404 387
3798 6 1415 404 399
3799 4 278 412 413
3800 3 278 412 417
3801 5 417 412 413
3802 6 829 417 412
3803 8 412 417 950
3804 7 829 417 950
3805 2 449 442 445
3806 2 546 442 445
3807 1 449 442 546
3808 10 442 445 446
3809 11 442 445 447
3810 12 442 445 448
3811 13 446 445 447
3812 14 446 445 448
3813 15 447 445 448
3814 2 467 463 466
3815 2 543 463 466
3816 1 467 463 543
3817 10 463 466 540
3818 11 463 466 541
3819 12 463 466 542
3820 13 540 466 541
3821 14 540 466 542
3822 15 541 466 542
3823 2 477 473 476
3824 2 507 473 476
3825 1 477 473 507
3826 10 473 476 504
3827 11 473 476 505
3828 12 473 476 506
3829 13 504 476 505
3830 14 504 476 506
3831 15 505 476 506
3832 2 848 289 292
3833 2 972 289 292
3834 1 848 289 972
3835 10 289 292 293
3836 11 289 292 294
3837 12 289 292 295
3838 13 293 292 294
3839 14 293 292 295
3840 15 294 292 295
3841 2 1419 311 314
3842 2 1508 311 314
3843 1 1419 311 1508
3844 10 311 314 401
3845 11 311 314 402
3846 12 311 314 403
3847 13 401 314 402
3848 14 401 314 403
3849 15 402 314 403
3850 1 85 354 89
3851 2 85 354 357
3852 2 89 354 357
3853 10 354 357 358
3854 11 354 357 359
3855 12 354 357 360
3856 13 358 357 359
3857 14 358 357 360
3858 15 359 357 360
3859 5 449 443 444
3860 4 544 443 444
3861 3 544 443 449
3862 6 442 449 443
3863 7 442 449 834
3864 8 443 449 834
3865 5 457 451 452
3866 4 529 451 452
3867 3 529 451 457
3868 6 450 457 451
3869 7 450 457 1420
3870 8 451 457 1420
3871 5 485 479 480
3872 4 508 479 480
3873 3 508 479 485
3874 6 478 485 479
3875 7 478 485 1491
3876 8 479 485 1491
3877 4 479 508 509
3878 3 479 508 510
3879 5 510 508 509
3880 6 478 510 508
3881 7 478 510 960
3882 8 508 510 960
3883 4 451 529 530
3884 3 451 529 531
3885 5 531 529 530
3886 7 450 531 62
3887 8 529 531 62
3888 6 450 531 529
3889 4 443 544 545
3890 3 443 544 546
3891 5 546 544 545
3892 7 442 546 86
3893 8 544 546 86
3894 6 442 546 544
3895 5 1385 1382 1383
3896 4 1516 1382 1383
3897 3 1516 1382 1385
3898 6 1933 1385 1382
3899 8 1382 1385 1938
3900 7 1933 1385 1938
3901 5 1419 1416 1417
3902 4 1503 1416 1417
3903 3 1503 1416 1419
3904 6 311 1419 1416
3905 7 311 1419 1420
3906 8 1416 1419 1420
3907 9 332 1420 457
3908 9 332 1420 1419
3909 9 332 1420 1571
3910 9 457 1420 1419
3911 9 457 1420 1571
3912 9 1419 1420 1571
3913 5 1456 1453 1454
3914 4 1479 1453 1454
3915 3 1479 1453 1456
3916 7 1176 1456 1181
3917 6 1176 1456 1453
3918 8 1453 1456 1181
3919 4 1453 1479 1480
3920 3 1453 1479 1484
3921 5 1484 1479 1480
3922 7 1176 1484 1190
3923 6 1176 1484 1479
3924 8 1479 1484 1190
3925 9 386 1491 485
3926 9 386 1491 1508
3927 9 386 1491 1611
3928 9 485 1491 1508
3929 9 485 1491 1611
3930 9 1508 1491 1611
3931 4 1416 1503 1504
3932 3 1416 1503 1508
3933 5 1508 1503 1504
3934 7 311 1508 1491
3935 6 311 1508 1503
3936 8 1503 1508 1491
3937 4 1382 1516 1517
3938 3 1382 1516 1521
3939 5 1521 1516 1517
3940 6 1933 1521 1516
3941 8 1516 1521 2054
3942 7 1933 1521 2054
3943 2 1553 1546 1549
3944 2 1650 1546 1549
3945 1 1553 1546 1650
3946 10 1546 1549 1550
3947 11 1546 1549 1551
3948 12 1546 1549 1552
3949 13 1550 1549 1551
3950 14 1550 1549 1552
3951 15 1551 1549 1552
3952 2 1571 1567 1570
3953 2 1647 1567 1570
3954 1 1571 1567 1647
3955 10 1567 1570 1644
3956 11 1567 1570 1645
3957 12 1567 1570 1646
3958 13 1644 1570 1645
3959 14 1644 1570 1646
3960 15 1645 1570 1646
3961 2 1581 1577 1580
3962 2 1611 1577 1580
3963 1 1581 1577 1611
3964 10 1577 1580 1608
3965 11 1577 1580 1609
3966 12 1577 1580 1610
3967 13 1608 1580 1609
3968 14 1608 1580 1610
3969 15 1609 1580 1610
3970 2 1952 1393 1396
3971 2 2076 1393 1396
3972 1 1952 1393 2076
3973 10 1393 1396 1397
3974 11 1393 1396 1398
3975 12 1393 1396 1399
3976 13 1397 1396 1398
3977 14 1397 1396 1399
3978 15 1398 1396 1399
3979 1 315 1415 404
3980 2 315 1415 1418
3981 2 404 1415 1418
3982 10 1415 1418 1505
3983 11 1415 1418 1506
3984 12 1415 1418 1507
3985 13 1505 1418 1506
3986 14 1505 1418 1507
3987 15 1506 1418 1507
3988 1 1189 1458 1193
3989 2 1189 1458 1461
3990 2 1193 1458 1461
3991 10 1458 1461 1462
3992 11 1458 1461 1463
3993 12 1458 1461 1464
3994 13 1462 1461 1463
3995 14 1462 1461 1464
3996 15 1463 1461 1464
3997 5 1553 1547 1548
3998 4 1648 1547 1548
3999 3 1648 1547 1553
4000 6 1546 1553 1547
4001 7 1546 1553 1938
4002 8 1547 1553 1938
4003 5 1561 1555 1556
4004 4 1633 1555 1556
4005 3 1633 1555 1561
4006 7 1554 1561 316
4007 8 1555 1561 316
4008 6 1554 1561 1555
4009 5 1589 1583 1584
4010 4 1612 1583 1584
4011 3 1612 1583 1589
4012 7 1582 1589 387
4013 8 1583 1589 387
4014 6 1582 1589 1583
4015 4 1583 1612 1613
4016 3 1583 1612 1614
4017 5 1614 1612 1613
4018 6 1582 1614 1612
4019 7 1582 1614 2064
4020 8 1612 1614 2064
4021 4 1555 1633 1634
4022 3 1555 1633 1635
4023 5 1635 1633 1634
4024 7 1554 1635 1166
4025 8 1633 1635 1166
4026 6 1554 1635 1633
4027 4 1547 1648 1649
4028 3 1547 1648 1650
4029 5 1650 1648 1649
4030 7 1546 1650 1190
4031 8 1648 1650 1190
4032 6 1546 1650 1648
4033 1 281 829 417
4034 2 281 829 832
4035 2 417 829 832
4036 10 829 832 966
4037 11 829 832 967
4038 12 829 832 968
4039 13 966 832 967
4040 14 966 832 968
4041 15 967 832 968
4042 2 1988 877 880
4043 2 2046 877 880
4044 1 1988 877 2046
4045 10 877 880 881
4046 11 877 880 882
4047 12 877 880 883
4048 13 881 880 882
4049 14 881 880 883
4050 15 882 880 883
4051 1 622 891 650
4052 2 622 891 894
4053 2 650 891 894
4054 10 891 894 895
4055 11 891 894 896
4056 12 891 894 897
4057 13 895 894 896
4058 14 895 894 897
4059 15 896 894 897
4060 9 963 943 1050
4061 9 963 943 2046
4062 9 963 943 2172
4063 9 1050 943 2046
4064 9 1050 943 2172
4065 9 2046 943 2172
4066 9 417 950 477
4067 9 417 950 949
4068 9 417 950 1053
4069 9 477 950 949
4070 9 477 950 1053
4071 9 949 950 1053
4072 5 985 982 983
4073 4 1069 982 983
4074 3 1069 982 985
4075 7 981 985 834
4076 8 982 985 834
4077 6 981 985 982
4078 5 1019 1016 1017
4079 4 1090 1016 1017
4080 3 1090 1016 1019
4081 7 1015 1019 868
4082 8 1016 1019 868
4083 6 1015 1019 1016
4084 5 1050 1044 1045
4085 4 1051 1044 1045
4086 3 1051 1044 1050
4087 7 1043 1050 943
4088 8 1044 1050 943
4089 6 1043 1050 1044
4090 4 1044 1051 1052
4091 3 1044 1051 1053
4092 5 1053 1051 1052
4093 7 1043 1053 950
4094 8 1051 1053 950
4095 6 1043 1053 1051
4096 4 982 1069 1070
4097 3 982 1069 1074
4098 5 1074 1069 1070
4099 7 981 1074 623
4100 8 1069 1074 623
4101 6 981 1074 1069
4102 4 1016 1090 1091
4103 3 1016 1090 1095
4104 5 1095 1090 1091
4105 7 1015 1095 629
4106 8 1090 1095 629
4107 6 1015 1095 1090
4108 9 281 834 449
4109 9 281 834 848
4110 9 281 834 985
4111 9 449 834 848
4112 9 449 834 985
4113 9 848 834 985
4114 5 848 842 843
4115 4 970 842 843
4116 3 970 842 848
4117 7 289 848 834
4118 6 289 848 842
4119 8 842 848 834
4120 5 884 878 879
4121 4 940 878 879
4122 3 940 878 884
4123 8 878 884 1972
4124 6 1981 884 878
4125 7 1981 884 1972
4126 5 889 886 887
4127 4 918 886 887
4128 3 918 886 889
4129 7 609 889 614
4130 6 609 889 886
4131 8 886 889 614
4132 4 886 918 919
4133 3 886 918 923
4134 5 923 918 919
4135 7 609 923 623
4136 6 609 923 918
4137 8 918 923 623
4138 4 878 940 941
4139 3 878 940 942
4140 5 942 940 941
4141 6 1981 942 940
4142 8 940 942 2047
4143 7 1981 942 2047
4144 9 407 960 510
4145 9 407 960 972
4146 9 407 960 1042
4147 9 510 960 972
4148 9 510 960 1042
4149 9 972 960 1042
4150 4 842 970 971
4151 3 842 970 972
4152 5 972 970 971
4153 7 289 972 960
4154 6 289 972 970
4155 8 970 972 960
4156 2 985 981 984
4157 2 1074 981 984
4158 1 985 981 1074
4159 10 981 984 1071
4160 11 981 984 1072
4161 12 981 984 1073
4162 13 1071 984 1072
4163 14 1071 984 1073
4164 15 1072 984 1073
4165 2 1009 1002 1005
4166 2 1083 1002 1005
4167 1 1009 1002 1083
4168 10 1002 1005 1006
4169 11 1002 1005 1007
4170 12 1002 1005 1008
4171 13 1006 1005 1007
4172 14 1006 1005 1008
4173 15 1007 1005 1008
4174 2 1042 1038 1041
4175 2 1068 1038 1041
4176 1 1042 1038 1068
4177 10 1038 1041 1065
4178 11 1038 1041 1066
4179 12 1038 1041 1067
4180 13 1065 1041 1066
4181 14 1065 1041 1067
4182 15 1066 1041 1067
4183 1 1385 1933 1521
4184 2 1385 1933 1936
4185 2 1521 1933 1936
4186 10 1933 1936 2070
4187 11 1933 1936 2071
4188 12 1933 1936 2072
4189 13 2070 1936 2071
4190 14 2070 1936 2072
4191 15 2071 1936 2072
4192 1 884 1981 942
4193 2 884 1981 1984
4194 2 942 1981 1984
4195 10 1981 1984 1985
4196 11 1981 1984 1986
4197 12 1981 1984 1987
4198 13 1985 1984 1986
4199 14 1985 1984 1987
4200 15 1986 1984 1987
4201 1 1726 1995 1754
4202 2 1726 1995 1998
4203 2 1754 1995 1998
4204 10 1995 1998 1999
4205 11 1995 1998 2000
4206 12 1995 1998 2001
4207 13 1999 1998 2000
4208 14 1999 1998 2001
4209 15 2000 1998 2001
4210 9 942 2047 1068
4211 9 942 2047 2067
4212 9 942 2047 2154
4213 9 1068 2047 2067
4214 9 1068 2047 2154
4215 9 2067 2047 2154
4216 9 1521 2054 1581
4217 9 1521 2054 2053
4218 9 1521 2054 2157
4219 9 1581 2054 2053
4220 9 1581 2054 2157
4221 9 2053 2054 2157
4222 5 2089 2086 2087
4223 4 2173 2086 2087
4224 3 2173 2086 2089
4225 7 2085 2089 1938
4226 8 2086 2089 1938
4227 6 2085 2089 2086
4228 5 2123 2120 2121
4229 4 2194 2120 2121
4230 3 2194 2120 2123
4231 7 2119 2123 1972
4232 8 2120 2123 1972
4233 6 2119 2123 2120
4234 5 2154 2148 2149
4235 4 2155 2148 2149
4236 3 2155 2148 2154
4237 7 2147 2154 2047
4238 8 2148 2154 2047
4239 6 2147 2154 2148
4240 4 2148 2155 2156
4241 3 2148 2155 2157
4242 5 2157 2155 2156
4243 7 2147 2157 2054
4244 8 2155 2157 2054
4245 6 2147 2157 2155
4246 4 2086 2173 2174
4247 3 2086 2173 2178
4248 5 2178 2173 2174
4249 7 2085 2178 1727
4250 8 2173 2178 1727
4251 6 2085 2178 2173
4252 4 2120 2194 2195
4253 3 2120 2194 2199
4254 5 2199 2194 2195
4255 7 2119 2199 1733
4256 8 2194 2199 1733
4257 6 2119 2199 2194
4258 9 1385 1938 1553
4259 9 1385 1938 1952
4260 9 1385 1938 2089
4261 9 1553 1938 1952
4262 9 1553 1938 2089
4263 9 1952 1938 2089
4264 5 1952 1946 1947
4265 4 2074 1946 1947
4266 3 2074 1946 1952
4267 7 1393 1952 1938
4268 6 1393 1952 1946
4269 8 1946 1952 1938
4270 5 1988 1982 1983
4271 4 2044 1982 1983
4272 3 2044 1982 1988
4273 7 877 1988 868
4274 8 1982 1988 868
4275 6 877 1988 1982
4276 5 1993 1990 1991
4277 4 2022 1990 1991
4278 3 2022 1990 1993
4279 7 1713 1993 1718
4280 6 1713 1993 1990
4281 8 1990 1993 1718
4282 4 1990 2022 2023
4283 3 1990 2022 2027
4284 5 2027 2022 2023
4285 7 1713 2027 1727
4286 6 1713 2027 2022
4287 8 2022 2027 1727
4288 4 1982 2044 2045
4289 3 1982 2044 2046
4290 5 2046 2044 2045
4291 7 877 2046 943
4292 6 877 2046 2044
4293 8 2044 2046 943
4294 9 1511 2064 1614
4295 9 1511 2064 2076
4296 9 1511 2064 2146
4297 9 1614 2064 2076
4298 9 1614 2064 2146
4299 9 2076 2064 2146
4300 4 1946 2074 2075
4301 3 1946 2074 2076
4302 5 2076 2074 2075
4303 7 1393 2076 2064
4304 6 1393 2076 2074
4305 8 2074 2076 2064
4306 2 2089 2085 2088
4307 2 2178 2085 2088
4308 1 2089 2085 2178
4309 10 2085 2088 2175
4310 11 2085 2088 2176
4311 12 2085 2088 2177
4312 13 2175 2088 2176
4313 14 2175 2088 2177
4314 15 2176 2088 2177
4315 2 2113 2106 2109
4316 2 2187 2106 2109
4317 1 2113 2106 2187
4318 10 2106 2109 2110
4319 11 2106 2109 2111
4320 12 2106 2109 2112
4321 13 2110 2109 2111
4322 14 2110 2109 2112
4323 15 2111 2109 2112
4324 2 2146 2142 2145
4325 2 2172 2142 2145
4326 1 2146 2142 2172
4327 10 2142 2145 2169
4328 11 2142 2145 2170
4329 12 2142 2145 2171
4330 13 2169 2145 2170
4331 14 2169 2145 2171
4332 15 2170 2145 2171
4333 5 833 830 831
4334 4 964 830 831
4335 3 964 830 833
4336 7 277 833 282
4337 6 277 833 830
4338 8 830 833 282
4339 5 867 864 865
4340 4 951 864 865
4341 3 951 864 867
4342 8 864 867 868
4343 6 1967 867 864
4344 7 1967 867 868
4345 9 867 868 1019
4346 9 867 868 1988
4347 9 867 868 2113
4348 9 1019 868 1988
4349 9 1019 868 2113
4350 9 1988 868 2113
4351 5 904 901 902
4352 4 927 901 902
4353 3 927 901 904
4354 7 624 904 629
4355 6 624 904 901
4356 8 901 904 629
4357 4 901 927 928
4358 3 901 927 932
4359 5 932 927 928
4360 7 624 932 638
4361 6 624 932 927
4362 8 927 932 638
4363 9 956 939 1059
4364 9 956 939 2042
4365 9 956 939 2141
4366 9 1059 939 2042
4367 9 1059 939 2141
4368 9 2042 939 2141
4369 4 864 951 952
4370 3 864 951 956
4371 5 956 951 952
4372 8 951 956 939
4373 7 1967 956 939
4374 6 1967 956 951
4375 4 830 964 965
4376 3 830 964 969
4377 5 969 964 965
4378 7 277 969 398
4379 6 277 969 964
4380 8 964 969 398
4381 2 1001 994 997
4382 2 1098 994 997
4383 1 1001 994 1098
4384 10 994 997 998
4385 11 994 997 999
4386 12 994 997 1000
4387 13 998 997 999
4388 14 998 997 1000
4389 15 999 997 1000
4390 2 1019 1015 1018
4391 2 1095 1015 1018
4392 1 1019 1015 1095
4393 10 1015 1018 1092
4394 11 1015 1018 1093
4395 12 1015 1018 1094
4396 13 1092 1018 1093
4397 14 1092 1018 1094
4398 15 1093 1018 1094
4399 2 1029 1025 1028
4400 2 1059 1025 1028
4401 1 1029 1025 1059
4402 10 1025 1028 1056
4403 11 1025 1028 1057
4404 12 1025 1028 1058
4405 13 1056 1028 1057
4406 14 1056 1028 1058
4407 15 1057 1028 1058
4408 1 296 841 420
4409 2 296 841 844
4410 2 420 841 844
4411 10 841 844 845
4412 11 841 844 846
4413 12 841 844 847
4414 13 845 844 846
4415 14 845 844 847
4416 15 846 844 847
4417 2 1971 863 866
4418 2 2060 863 866
4419 1 1971 863 2060
4420 10 863 866 953
4421 11 863 866 954
4422 12 863 866 955
4423 13 953 866 954
4424 14 953 866 955
4425 15 954 866 955
4426 1 637 906 641
4427 2 637 906 909
4428 2 641 906 909
4429 10 906 909 910
4430 11 906 909 911
4431 12 906 909 912
4432 13 910 909 911
4433 14 910 909 912
4434 15 911 909 912
4435 5 1001 995 996
4436 4 1096 995 996
4437 3 1096 995 1001
4438 7 994 1001 282
4439 8 995 1001 282
4440 6 994 1001 995
4441 5 1009 1003 1004
4442 4 1081 1003 1004
4443 3 1081 1003 1009
4444 6 1002 1009 1003
4445 7 1002 1009 1972
4446 8 1003 1009 1972
4447 5 1037 1031 1032
4448 4 1060 1031 1032
4449 3 1060 1031 1037
4450 6 1030 1037 1031
4451 7 1030 1037 2043
4452 8 1031 1037 2043
4453 4 1031 1060 1061
4454 3 1031 1060 1062
4455 5 1062 1060 1061
4456 7 1030 1062 408
4457 8 1060 1062 408
4458 6 1030 1062 1060
4459 4 1003 1081 1082
4460 3 1003 1081 1083
4461 5 1083 1081 1082
4462 7 1002 1083 614
4463 8 1081 1083 614
4464 6 1002 1083 1081
4465 4 995 1096 1097
4466 3 995 1096 1098
4467 5 1098 1096 1097
4468 7 994 1098 638
4469 8 1096 1098 638
4470 6 994 1098 1096
4471 5 1937 1934 1935
4472 4 2068 1934 1935
4473 3 2068 1934 1937
4474 7 1381 1937 1386
4475 6 1381 1937 1934
4476 8 1934 1937 1386
4477 5 1971 1968 1969
4478 4 2055 1968 1969
4479 3 2055 1968 1971
4480 6 863 1971 1968
4481 7 863 1971 1972
4482 8 1968 1971 1972
4483 9 884 1972 1009
4484 9 884 1972 1971
4485 9 884 1972 2123
4486 9 1009 1972 1971
4487 9 1009 1972 2123
4488 9 1971 1972 2123
4489 5 2008 2005 2006
4490 4 2031 2005 2006
4491 3 2031 2005 2008
4492 7 1728 2008 1733
4493 6 1728 2008 2005
4494 8 2005 2008 1733
4495 4 2005 2031 2032
4496 3 2005 2031 2036
4497 5 2036 2031 2032
4498 7 1728 2036 1742
4499 6 1728 2036 2031
4500 8 2031 2036 1742
4501 9 938 2043 1037
4502 9 938 2043 2060
4503 9 938 2043 2163
4504 9 1037 2043 2060
4505 9 1037 2043 2163
4506 9 2060 2043 2163
4507 4 1968 2055 2056
4508 3 1968 2055 2060
4509 5 2060 2055 2056
4510 7 863 2060 2043
4511 6 863 2060 2055
4512 8 2055 2060 2043
4513 4 1934 2068 2069
4514 3 1934 2068 2073
4515 5 2073 2068 2069
4516 7 1381 2073 1502
4517 6 1381 2073 2068
4518 8 2068 2073 1502
4519 2 2105 2098 2101
4520 2 2202 2098 2101
4521 1 2105 2098 2202
4522 10 2098 2101 2102
4523 11 2098 2101 2103
4524 12 2098 2101 2104
4525 13 2102 2101 2103
4526 14 2102 2101 2104
4527 15 2103 2101 2104
4528 2 2123 2119 2122
4529 2 2199 2119 2122
4530 1 2123 2119 2199
4531 10 2119 2122 2196
4532 11 2119 2122 2197
4533 12 2119 2122 2198
4534 13 2196 2122 2197
4535 14 2196 2122 2198
4536 15 2197 2122 2198
4537 2 2133 2129 2132
4538 2 2163 2129 2132
4539 1 2133 2129 2163
4540 10 2129 2132 2160
4541 11 2129 2132 2161
4542 12 2129 2132 2162
4543 13 2160 2132 2161
4544 14 2160 2132 2162
4545 15 2161 2132 2162
4546 1 1400 1945 1524
4547 2 1400 1945 1948
4548 2 1524 1945 1948
4549 10 1945 1948 1949
4550 11 1945 1948 1950
4551 12 1945 1948 1951
4552 13 1949 1948 1950
4553 14 1949 1948 1951
4554 15 1950 1948 1951
4555 1 867 1967 956
4556 2 867 1967 1970
4557 2 956 1967 1970
4558 10 1967 1970 2057
4559 11 1967 1970 2058
4560 12 1967 1970 2059
4561 13 2057 1970 2058
4562 14 2057 1970 2059
4563 15 2058 1970 2059
4564 1 1741 2010 1745
4565 2 1741 2010 2013
4566 2 1745 2010 2013
4567 10 2010 2013 2014
4568 11 2010 2013 2015
4569 12 2010 2013 2016
4570 13 2014 2013 2015
4571 14 2014 2013 2016
4572 15 2015 2013 2016
4573 5 2105 2099 2100
4574 4 2200 2099 2100
4575 3 2200 2099 2105
4576 7 2098 2105 1386
4577 8 2099 2105 1386
4578 6 2098 2105 2099
4579 5 2113 2107 2108
4580 4 2185 2107 2108
4581 3 2185 2107 2113
4582 7 2106 2113 868
4583 8 2107 2113 868
4584 6 2106 2113 2107
4585 5 2141 2135 2136
4586 4 2164 2135 2136
4587 3 2164 2135 2141
4588 7 2134 2141 939
4589 8 2135 2141 939
4590 6 2134 2141 2135
4591 4 2135 2164 2165
4592 3 2135 2164 2166
4593 5 2166 2164 2165
4594 7 2134 2166 1512
4595 8 2164 2166 1512
4596 6 2134 2166 2164
4597 4 2107 2185 2186
4598 3 2107 2185 2187
4599 5 2187 2185 2186
4600 7 2106 2187 1718
4601 8 2185 2187 1718
4602 6 2106 2187 2185
4603 4 2099 2200 2201
4604 3 2099 2200 2202
4605 5 2202 2200 2201
4606 7 2098 2202 1742
4607 8 2200 2202 1742
4608 6 2098 2202 2200

Dihedrals

1 4 28 22 133 134
2 1 12 28 22 133
3 2 1125 28 22 23
4 3 1125 28 22 133
5 4 33 30 116 117
6 1 34 33 30 116
7 2 581 33 30 31
8 3 581 33 30 116
9 4 70 64 96 97
10 1 71 70 64 96
11 2 339 70 64 65
12 3 339 70 64 96
13 6 97 96 64 65
14 4 98 96 64 65
15 5 98 96 64 70
16 1 77 98 96 64
17 3 339 98 96 64
18 2 339 98 96 97
19 6 117 116 30 31
20 4 121 116 30 31
21 5 121 116 30 33
22 1 122 121 116 30
23 3 581 121 116 30
24 2 581 121 116 117
25 6 134 133 22 23
26 4 135 133 22 23
27 5 135 133 22 28
28 1 115 135 133 22
29 3 1125 135 133 22
30 2 1125 135 133 134
31 7 161 158 165 12
32 9 276 158 165 12
33 8 161 158 165 159
34 10 276 158 165 159
35 7 161 158 276 77
36 9 165 158 276 77
37 8 161 158 276 274
38 10 165 158 276 274
39 7 185 182 186 34
40 9 261 182 186 34
41 8 185 182 186 183
42 10 261 182 186 183
43 7 185 182 261 71
44 9 186 182 261 71
45 8 185 182 261 256
46 10 186 182 261 256
47 7 218 215 222 115
48 9 225 215 222 115
49 8 218 215 222 216
50 10 225 215 222 216
51 7 218 215 225 122
52 9 222 215 225 122
53 8 218 215 225 223
54 10 222 215 225 223
55 7 24 21 1132 1116
56 9 1239 21 1132 1116
57 8 24 21 1132 1126
58 10 1239 21 1132 1126
59 7 24 21 1239 1219
60 9 1132 21 1239 1219
61 8 24 21 1239 1237
62 10 1132 21 1239 1237
63 12 186 34 33 30
64 11 186 34 33 581
65 12 600 34 33 30
66 11 600 34 33 581
67 12 748 34 33 30
68 11 748 34 33 581
69 11 33 34 186 182
70 11 600 34 186 182
71 11 748 34 186 182
72 12 33 34 186 183
73 12 600 34 186 183
74 12 748 34 186 183
75 11 33 34 600 41
76 11 186 34 600 41
77 11 748 34 600 41
78 12 33 34 600 594
79 12 186 34 600 594
80 12 748 34 600 594
81 11 33 34 748 744
82 11 186 34 748 744
83 11 600 34 748 744
84 12 33 34 748 745
85 12 186 34 748 745
86 12 600 34 748 745
87 7 44 41 600 34
88 9 683 41 600 34
89 8 44 41 600 594
90 10 683 41 600 594
91 7 44 41 683 132
92 9 600 41 683 132
93 8 44 41 683 681
94 10 600 41 683 681
95 7 60 57 337 62
96 9 371 57 337 62
97 8 60 57 337 334
98 10 371 57 337 334
99 7 60 57 371 71
100 9 337 57 371 71
101 8 60 57 371 366
102 10 337 57 371 366
103 12 261 71 70 64
104 11 261 71 70 339
105 12 371 71 70 64
106 11 371 71 70 339
107 12 522 71 70 64
108 11 522 71 70 339
109 11 70 71 261 182
110 11 371 71 261 182
111 11 522 71 261 182
112 12 70 71 261 256
113 12 371 71 261 256
114 12 522 71 261 256
115 11 70 71 371 57
116 11 261 71 371 57
117 11 522 71 371 57
118 12 70 71 371 366
119 12 261 71 371 366
120 12 522 71 371 366
121 11 70 71 522 429
122 11 261 71 522 429
123 11 371 71 522 429
124 12 70 71 522 517
125 12 261 71 522 517
126 12 371 71 522 517
127 4 152 146 271 272
128 2 145 152 146 147
129 3 145 152 146 271
130 1 1116 152 146 271
131 4 186 183 256 257
132 1 34 186 183 256
133 2 182 186 183 184
134 3 182 186 183 256
135 4 214 211 235 236
136 1 132 214 211 235
137 2 210 214 211 212
138 3 210 214 211 235
139 6 236 235 211 212
140 4 240 235 211 212
141 5 240 235 211 214
142 3 210 240 235 211
143 2 210 240 235 236
144 1 1219 240 235 211
145 6 257 256 183 184
146 4 261 256 183 184
147 5 261 256 183 186
148 1 71 261 256 183
149 3 182 261 256 183
150 2 182 261 256 257
151 6 272 271 146 147
152 4 273 271 146 147
153 5 273 271 146 152
154 1 62 273 271 146
155 3 145 273 271 146
156 2 145 273 271 272
157 4 1132 1126 1237 1238
158 2 21 1132 1126 1127
159 3 21 1132 1126 1237
160 1 1116 1132 1126 1237
161 4 1137 1134 1220 1221
162 1 1138 1137 1134 1220
163 2 1685 1137 1134 1135
164 3 1685 1137 1134 1220
165 4 1174 1168 1200 1201
166 1 1175 1174 1168 1200
167 2 1443 1174 1168 1169
168 3 1443 1174 1168 1200
169 6 1201 1200 1168 1169
170 4 1202 1200 1168 1169
171 5 1202 1200 1168 1174
172 1 1181 1202 1200 1168
173 3 1443 1202 1200 1168
174 2 1443 1202 1200 1201
175 6 1221 1220 1134 1135
176 4 1225 1220 1134 1135
177 5 1225 1220 1134 1137
178 1 1226 1225 1220 1134
179 3 1685 1225 1220 1134
180 2 1685 1225 1220 1221
181 6 1238 1237 1126 1127
182 4 1239 1237 1126 1127
183 5 1239 1237 1126 1132
184 3 21 1239 1237 1126
185 2 21 1239 1237 1238
186 1 1219 1239 1237 1126
187 7 1265 1262 1269 1116
188 9 1380 1262 1269 1116
189 8 1265 1262 1269 1263
190 10 1380 1262 1269 1263
191 7 1265 1262 1380 1181
192 9 1269 1262 1380 1181
193 8 1265 1262 1380 1378
194 10 1269 1262 1380 1378
195 7 1289 1286 1290 1138
196 9 1365 1286 1290 1138
197 8 1289 1286 1290 1287
198 10 1365 1286 1290 1287
199 7 1289 1286 1365 1175
200 9 1290 1286 1365 1175
201 8 1289 1286 1365 1360
202 10 1290 1286 1365 1360
203 7 1322 1319 1326 1219
204 9 1329 1319 1326 1219
205 8 1322 1319 1326 1320
206 10 1329 1319 1326 1320
207 7 1322 1319 1329 1226
208 9 1326 1319 1329 1226
209 8 1322 1319 1329 1327
210 10 1326 1319 1329 1327
211 9 135 1125 28 12
212 10 135 1125 28 22
213 7 1128 1125 28 12
214 8 1128 1125 28 22
215 9 28 1125 135 115
216 10 28 1125 135 133
217 7 1128 1125 135 115
218 8 1128 1125 135 133
219 12 1290 1138 1137 1134
220 11 1290 1138 1137 1685
221 12 1704 1138 1137 1134
222 11 1704 1138 1137 1685
223 12 1852 1138 1137 1134
224 11 1852 1138 1137 1685
225 11 1137 1138 1290 1286
226 11 1704 1138 1290 1286
227 11 1852 1138 1290 1286
228 12 1137 1138 1290 1287
229 12 1704 1138 1290 1287
230 12 1852 1138 1290 1287
231 11 1137 1138 1704 1145
232 11 1290 1138 1704 1145
233 11 1852 1138 1704 1145
234 12 1137 1138 1704 1698
235 12 1290 1138 1704 1698
236 12 1852 1138 1704 1698
237 11 1137 1138 1852 1848
238 11 1290 1138 1852 1848
239 11 1704 1138 1852 1848
240 12 1137 1138 1852 1849
241 12 1290 1138 1852 1849
242 12 1704 1138 1852 1849
243 7 1148 1145 1704 1138
244 9 1787 1145 1704 1138
245 8 1148 1145 1704 1698
246 10 1787 1145 1704 1698
247 7 1148 1145 1787 1236
248 9 1704 1145 1787 1236
249 8 1148 1145 1787 1785
250 10 1704 1145 1787 1785
251 7 1164 1161 1441 1166
252 9 1475 1161 1441 1166
253 8 1164 1161 1441 1438
254 10 1475 1161 1441 1438
255 7 1164 1161 1475 1175
256 9 1441 1161 1475 1175
257 8 1164 1161 1475 1470
258 10 1441 1161 1475 1470
259 12 1365 1175 1174 1168
260 11 1365 1175 1174 1443
261 12 1475 1175 1174 1168
262 11 1475 1175 1174 1443
263 12 1626 1175 1174 1168
264 11 1626 1175 1174 1443
265 11 1174 1175 1365 1286
266 11 1475 1175 1365 1286
267 11 1626 1175 1365 1286
268 12 1174 1175 1365 1360
269 12 1475 1175 1365 1360
270 12 1626 1175 1365 1360
271 11 1174 1175 1475 1161
272 11 1365 1175 1475 1161
273 11 1626 1175 1475 1161
274 12 1174 1175 1475 1470
275 12 1365 1175 1475 1470
276 12 1626 1175 1475 1470
277 11 1174 1175 1626 1533
278 11 1365 1175 1626 1533
279 11 1475 1175 1626 1533
280 12 1174 1175 1626 1621
281 12 1365 1175 1626 1621
282 12 1475 1175 1626 1621
283 4 1256 1250 1375 1376
284 1 12 1256 1250 1375
285 2 1249 1256 1250 1251
286 3 1249 1256 1250 1375
287 4 1290 1287 1360 1361
288 1 1138 1290 1287 1360
289 2 1286 1290 1287 1288
290 3 1286 1290 1287 1360
291 4 1318 1315 1339 1340
292 1 1236 1318 1315 1339
293 2 1314 1318 1315 1316
294 3 1314 1318 1315 1339
295 6 1340 1339 1315 1316
296 4 1344 1339 1315 1316
297 5 1344 1339 1315 1318
298 1 115 1344 1339 1315
299 3 1314 1344 1339 1315
300 2 1314 1344 1339 1340
301 6 1361 1360 1287 1288
302 4 1365 1360 1287 1288
303 5 1365 1360 1287 1290
304 1 1175 1365 1360 1287
305 3 1286 1365 1360 1287
306 2 1286 1365 1360 1361
307 6 1376 1375 1250 1251
308 4 1377 1375 1250 1251
309 5 1377 1375 1250 1256
310 1 1166 1377 1375 1250
311 3 1249 1377 1375 1250
312 2 1249 1377 1375 1376
313 7 10 7 1115 12
314 9 1214 7 1115 12
315 8 10 7 1115 1112
316 10 1214 7 1115 1112
317 7 10 7 1214 111
318 9 1115 7 1214 111
319 8 10 7 1214 1209
320 10 1115 7 1214 1209
321 12 165 12 28 22
322 12 1115 12 28 22
323 12 1256 12 28 22
324 11 165 12 28 1125
325 11 1115 12 28 1125
326 11 1256 12 28 1125
327 11 28 12 165 158
328 11 1115 12 165 158
329 11 1256 12 165 158
330 12 28 12 165 159
331 12 1115 12 165 159
332 12 1256 12 165 159
333 11 28 12 1115 7
334 11 165 12 1115 7
335 11 1256 12 1115 7
336 12 28 12 1115 1112
337 12 165 12 1115 1112
338 12 1256 12 1115 1112
339 11 28 12 1256 1249
340 11 165 12 1256 1249
341 11 1115 12 1256 1249
342 12 28 12 1256 1250
343 12 165 12 1256 1250
344 12 1115 12 1256 1250
345 8 32 29 585 582
346 10 673 29 585 582
347 7 32 29 585 586
348 9 673 29 585 586
349 8 32 29 673 668
350 10 585 29 673 668
351 7 32 29 673 674
352 9 585 29 673 674
353 7 75 72 352 77
354 9 380 72 352 77
355 8 75 72 352 349
356 10 380 72 352 349
357 7 75 72 380 86
358 9 352 72 380 86
359 8 75 72 380 375
360 10 352 72 380 375
361 12 276 77 98 96
362 12 352 77 98 96
363 12 543 77 98 96
364 11 276 77 98 339
365 11 352 77 98 339
366 11 543 77 98 339
367 11 98 77 276 158
368 11 352 77 276 158
369 11 543 77 276 158
370 12 98 77 276 274
371 12 352 77 276 274
372 12 543 77 276 274
373 11 98 77 352 72
374 11 276 77 352 72
375 11 543 77 352 72
376 12 98 77 352 349
377 12 276 77 352 349
378 12 543 77 352 349
379 11 98 77 543 463
380 11 276 77 543 463
381 11 352 77 543 463
382 12 98 77 543 538
383 12 276 77 543 538
384 12 352 77 543 538
385 4 165 159 274 275
386 1 12 165 159 274
387 2 158 165 159 160
388 3 158 165 159 274
389 4 196 193 247 248
390 2 192 196 193 194
391 3 192 196 193 247
392 1 586 196 193 247
393 4 201 198 226 227
394 2 197 201 198 199
395 3 197 201 198 226
396 1 674 201 198 226
397 6 227 226 198 199
398 4 231 226 198 199
399 5 231 226 198 201
400 1 111 231 226 198
401 3 197 231 226 198
402 2 197 231 226 227
403 6 248 247 193 194
404 4 252 247 193 194
405 5 252 247 193 196
406 1 86 252 247 193
407 3 192 252 247 193
408 2 192 252 247 248
409 6 275 274 159 160
410 4 276 274 159 160
411 5 276 274 159 165
412 1 77 276 274 159
413 3 158 276 274 159
414 2 158 276 274 275
415 4 11 8 105 106
416 2 1111 11 8 9
417 3 1111 11 8 105
418 1 1116 11 8 105
419 4 48 42 129 130
420 1 586 48 42 129
421 2 593 48 42 43
422 3 593 48 42 129
423 12 273 62 89 87
424 12 337 62 89 87
425 12 531 62 89 87
426 11 273 62 89 354
427 11 337 62 89 354
428 11 531 62 89 354
429 11 89 62 273 145
430 11 337 62 273 145
431 11 531 62 273 145
432 12 89 62 273 271
433 12 337 62 273 271
434 12 531 62 273 271
435 11 89 62 337 57
436 11 273 62 337 57
437 11 531 62 337 57
438 12 89 62 337 334
439 12 273 62 337 334
440 12 531 62 337 334
441 11 89 62 531 450
442 11 273 62 531 450
443 11 337 62 531 450
444 12 89 62 531 529
445 12 273 62 531 529
446 12 337 62 531 529
447 4 85 79 87 88
448 1 86 85 79 87
449 2 354 85 79 80
450 3 354 85 79 87
451 12 252 86 85 79
452 11 252 86 85 354
453 12 380 86 85 79
454 11 380 86 85 354
455 12 546 86 85 79
456 11 546 86 85 354
457 11 85 86 252 192
458 11 380 86 252 192
459 11 546 86 252 192
460 12 85 86 252 247
461 12 380 86 252 247
462 12 546 86 252 247
463 11 85 86 380 72
464 11 252 86 380 72
465 11 546 86 380 72
466 12 85 86 380 375
467 12 252 86 380 375
468 12 546 86 380 375
469 11 85 86 546 442
470 11 252 86 546 442
471 11 380 86 546 442
472 12 85 86 546 544
473 12 252 86 546 544
474 12 380 86 546 544
475 6 88 87 79 80
476 4 89 87 79 80
477 5 89 87 79 85
478 1 62 89 87 79
479 3 354 89 87 79
480 2 354 89 87 88
481 6 106 105 8 9
482 4 110 105 8 9
483 5 110 105 8 11
484 3 1111 110 105 8
485 2 1111 110 105 106
486 1 1215 110 105 8
487 6 130 129 42 43
488 4 131 129 42 43
489 5 131 129 42 48
490 3 593 131 129 42
491 2 593 131 129 130
492 1 684 131 129 42
493 8 148 145 152 146
494 10 273 145 152 146
495 7 148 145 152 1116
496 9 273 145 152 1116
497 7 148 145 273 62
498 9 152 145 273 62
499 8 148 145 273 271
500 10 152 145 273 271
501 8 195 192 196 193
502 10 252 192 196 193
503 7 195 192 196 586
504 9 252 192 196 586
505 7 195 192 252 86
506 9 196 192 252 86
507 8 195 192 252 247
508 10 196 192 252 247
509 8 205 202 209 203
510 10 234 202 209 203
511 7 205 202 209 1215
512 9 234 202 209 1215
513 8 205 202 234 232
514 10 209 202 234 232
515 7 205 202 234 684
516 9 209 202 234 684
517 10 110 1111 11 8
518 9 110 1111 11 1116
519 8 1114 1111 11 8
520 7 1114 1111 11 1116
521 10 11 1111 110 105
522 9 11 1111 110 1215
523 8 1114 1111 110 105
524 7 1114 1111 110 1215
525 12 152 1116 11 8
526 11 152 1116 11 1111
527 12 1132 1116 11 8
528 11 1132 1116 11 1111
529 12 1269 1116 11 8
530 11 1269 1116 11 1111
531 11 11 1116 152 145
532 12 11 1116 152 146
533 11 1132 1116 152 145
534 12 1132 1116 152 146
535 11 1269 1116 152 145
536 12 1269 1116 152 146
537 11 11 1116 1132 21
538 11 152 1116 1132 21
539 11 1269 1116 1132 21
540 12 11 1116 1132 1126
541 12 152 1116 1132 1126
542 12 1269 1116 1132 1126
543 11 11 1116 1269 1262
544 11 152 1116 1269 1262
545 11 1132 1116 1269 1262
546 12 11 1116 1269 1263
547 12 152 1116 1269 1263
548 12 1132 1116 1269 1263
549 8 1136 1133 1689 1686
550 10 1777 1133 1689 1686
551 7 1136 1133 1689 1690
552 9 1777 1133 1689 1690
553 8 1136 1133 1777 1772
554 10 1689 1133 1777 1772
555 7 1136 1133 1777 1778
556 9 1689 1133 1777 1778
557 7 1179 1176 1456 1181
558 9 1484 1176 1456 1181
559 8 1179 1176 1456 1453
560 10 1484 1176 1456 1453
561 7 1179 1176 1484 1190
562 9 1456 1176 1484 1190
563 8 1179 1176 1484 1479
564 10 1456 1176 1484 1479
565 12 1380 1181 1202 1200
566 12 1456 1181 1202 1200
567 12 1647 1181 1202 1200
568 11 1380 1181 1202 1443
569 11 1456 1181 1202 1443
570 11 1647 1181 1202 1443
571 11 1202 1181 1380 1262
572 11 1456 1181 1380 1262
573 11 1647 1181 1380 1262
574 12 1202 1181 1380 1378
575 12 1456 1181 1380 1378
576 12 1647 1181 1380 1378
577 11 1202 1181 1456 1176
578 11 1380 1181 1456 1176
579 11 1647 1181 1456 1176
580 12 1202 1181 1456 1453
581 12 1380 1181 1456 1453
582 12 1647 1181 1456 1453
583 11 1202 1181 1647 1567
584 11 1380 1181 1647 1567
585 11 1456 1181 1647 1567
586 12 1202 1181 1647 1642
587 12 1380 1181 1647 1642
588 12 1456 1181 1647 1642
589 4 1269 1263 1378 1379
590 1 1116 1269 1263 1378
591 2 1262 1269 1263 1264
592 3 1262 1269 1263 1378
593 4 1300 1297 1351 1352
594 2 1296 1300 1297 1298
595 3 1296 1300 1297 1351
596 1 1690 1300 1297 1351
597 4 1305 1302 1330 1331
598 2 1301 1305 1302 1303
599 3 1301 1305 1302 1330
600 1 1778 1305 1302 1330
601 6 1331 1330 1302 1303
602 4 1335 1330 1302 1303
603 5 1335 1330 1302 1305
604 1 1215 1335 1330 1302
605 3 1301 1335 1330 1302
606 2 1301 1335 1330 1331
607 6 1352 1351 1297 1298
608 4 1356 1351 1297 1298
609 5 1356 1351 1297 1300
610 1 1190 1356 1351 1297
611 3 1296 1356 1351 1297
612 2 1296 1356 1351 1352
613 6 1379 1378 1263 1264
614 4 1380 1378 1263 1264
615 5 1380 1378 1263 1269
616 1 1181 1380 1378 1263
617 3 1262 1380 1378 1263
618 2 1262 1380 1378 1379
619 4 1115 1112 1209 1210
620 2 7 1115 1112 1113
621 3 7 1115 1112 1209
622 1 12 1115 1112 1209
623 4 1152 1146 1233 1234
624 1 1690 1152 1146 1233
625 2 1697 1152 1146 1147
626 3 1697 1152 1146 1233
627 12 1377 1166 1193 1191
628 12 1441 1166 1193 1191
629 12 1635 1166 1193 1191
630 11 1377 1166 1193 1458
631 11 1441 1166 1193 1458
632 11 1635 1166 1193 1458
633 11 1193 1166 1377 1249
634 11 1441 1166 1377 1249
635 11 1635 1166 1377 1249
636 12 1193 1166 1377 1375
637 12 1441 1166 1377 1375
638 12 1635 1166 1377 1375
639 11 1193 1166 1441 1161
640 11 1377 1166 1441 1161
641 11 1635 1166 1441 1161
642 12 1193 1166 1441 1438
643 12 1377 1166 1441 1438
644 12 1635 1166 1441 1438
645 11 1193 1166 1635 1554
646 11 1377 1166 1635 1554
647 11 1441 1166 1635 1554
648 12 1193 1166 1635 1633
649 12 1377 1166 1635 1633
650 12 1441 1166 1635 1633
651 4 1189 1183 1191 1192
652 1 1190 1189 1183 1191
653 2 1458 1189 1183 1184
654 3 1458 1189 1183 1191
655 12 1356 1190 1189 1183
656 11 1356 1190 1189 1458
657 12 1484 1190 1189 1183
658 11 1484 1190 1189 1458
659 12 1650 1190 1189 1183
660 11 1650 1190 1189 1458
661 11 1189 1190 1356 1296
662 11 1484 1190 1356 1296
663 11 1650 1190 1356 1296
664 12 1189 1190 1356 1351
665 12 1484 1190 1356 1351
666 12 1650 1190 1356 1351
667 11 1189 1190 1484 1176
668 11 1356 1190 1484 1176
669 11 1650 1190 1484 1176
670 12 1189 1190 1484 1479
671 12 1356 1190 1484 1479
672 12 1650 1190 1484 1479
673 11 1189 1190 1650 1546
674 11 1356 1190 1650 1546
675 11 1484 1190 1650 1546
676 12 1189 1190 1650 1648
677 12 1356 1190 1650 1648
678 12 1484 1190 1650 1648
679 6 1192 1191 1183 1184
680 4 1193 1191 1183 1184
681 5 1193 1191 1183 1189
682 1 1166 1193 1191 1183
683 3 1458 1193 1191 1183
684 2 1458 1193 1191 1192
685 6 1210 1209 1112 1113
686 4 1214 1209 1112 1113
687 5 1214 1209 1112 1115
688 3 7 1214 1209 1112
689 2 7 1214 1209 1210
690 1 111 1214 1209 1112
691 6 1234 1233 1146 1147
692 4 1235 1233 1146 1147
693 5 1235 1233 1146 1152
694 3 1697 1235 1233 1146
695 2 1697 1235 1233 1234
696 1 1788 1235 1233 1146
697 7 1252 1249 1256 12
698 9 1377 1249 1256 12
699 8 1252 1249 1256 1250
700 10 1377 1249 1256 1250
701 7 1252 1249 1377 1166
702 9 1256 1249 1377 1166
703 8 1252 1249 1377 1375
704 10 1256 1249 1377 1375
705 8 1299 1296 1300 1297
706 10 1356 1296 1300 1297
707 7 1299 1296 1300 1690
708 9 1356 1296 1300 1690
709 7 1299 1296 1356 1190
710 9 1300 1296 1356 1190
711 8 1299 1296 1356 1351
712 10 1300 1296 1356 1351
713 7 1309 1306 1313 111
714 9 1338 1306 1313 111
715 8 1309 1306 1313 1307
716 10 1338 1306 1313 1307
717 8 1309 1306 1338 1336
718 10 1313 1306 1338 1336
719 7 1309 1306 1338 1788
720 9 1313 1306 1338 1788
721 4 580 574 685 686
722 1 564 580 574 685
723 2 1677 580 574 575
724 3 1677 580 574 685
725 4 585 582 668 669
726 2 29 585 582 583
727 3 29 585 582 668
728 1 586 585 582 668
729 4 622 616 648 649
730 1 623 622 616 648
731 2 891 622 616 617
732 3 891 622 616 648
733 6 649 648 616 617
734 4 650 648 616 617
735 5 650 648 616 622
736 1 629 650 648 616
737 3 891 650 648 616
738 2 891 650 648 649
739 6 669 668 582 583
740 4 673 668 582 583
741 5 673 668 582 585
742 3 29 673 668 582
743 2 29 673 668 669
744 1 674 673 668 582
745 6 686 685 574 575
746 4 687 685 574 575
747 5 687 685 574 580
748 1 667 687 685 574
749 3 1677 687 685 574
750 2 1677 687 685 686
751 7 713 710 717 564
752 9 828 710 717 564
753 8 713 710 717 711
754 10 828 710 717 711
755 7 713 710 828 629
756 9 717 710 828 629
757 8 713 710 828 826
758 10 717 710 828 826
759 7 737 734 738 586
760 9 813 734 738 586
761 8 737 734 738 735
762 10 813 734 738 735
763 7 737 734 813 623
764 9 738 734 813 623
765 8 737 734 813 808
766 10 738 734 813 808
767 7 770 767 774 667
768 9 777 767 774 667
769 8 770 767 774 768
770 10 777 767 774 768
771 7 770 767 777 674
772 9 774 767 777 674
773 8 770 767 777 775
774 10 774 767 777 775
775 7 576 573 1684 1668
776 9 1791 573 1684 1668
777 8 576 573 1684 1678
778 10 1791 573 1684 1678
779 7 576 573 1791 1771
780 9 1684 573 1791 1771
781 8 576 573 1791 1789
782 10 1684 573 1791 1789
783 12 196 586 48 42
784 11 196 586 48 593
785 12 585 586 48 42
786 11 585 586 48 593
787 12 738 586 48 42
788 11 738 586 48 593
789 11 48 586 196 192
790 12 48 586 196 193
791 11 585 586 196 192
792 12 585 586 196 193
793 11 738 586 196 192
794 12 738 586 196 193
795 11 48 586 585 29
796 12 48 586 585 582
797 11 196 586 585 29
798 12 196 586 585 582
799 11 738 586 585 29
800 12 738 586 585 582
801 11 48 586 738 734
802 11 196 586 738 734
803 11 585 586 738 734
804 12 48 586 738 735
805 12 196 586 738 735
806 12 585 586 738 735
807 10 131 593 48 42
808 9 131 593 48 586
809 8 596 593 48 42
810 7 596 593 48 586
811 10 48 593 131 129
812 9 48 593 131 684
813 8 596 593 131 129
814 7 596 593 131 684
815 7 612 609 889 614
816 9 923 609 889 614
817 8 612 609 889 886
818 10 923 609 889 886
819 7 612 609 923 623
820 9 889 609 923 623
821 8 612 609 923 918
822 10 889 609 923 918
823 12 813 623 622 616
824 11 813 623 622 891
825 12 923 623 622 616
826 11 923 623 622 891
827 12 1074 623 622 616
828 11 1074 623 622 891
829 11 622 623 813 734
830 11 923 623 813 734
831 11 1074 623 813 734
832 12 622 623 813 808
833 12 923 623 813 808
834 12 1074 623 813 808
835 11 622 623 923 609
836 11 813 623 923 609
837 11 1074 623 923 609
838 12 622 623 923 918
839 12 813 623 923 918
840 12 1074 623 923 918
841 11 622 623 1074 981
842 11 813 623 1074 981
843 11 923 623 1074 981
844 12 622 623 1074 1069
845 12 813 623 1074 1069
846 12 923 623 1074 1069
847 4 704 698 823 824
848 2 697 704 698 699
849 3 697 704 698 823
850 1 1668 704 698 823
851 4 738 735 808 809
852 1 586 738 735 808
853 2 734 738 735 736
854 3 734 738 735 808
855 4 766 763 787 788
856 1 684 766 763 787
857 2 762 766 763 764
858 3 762 766 763 787
859 6 788 787 763 764
860 4 792 787 763 764
861 5 792 787 763 766
862 3 762 792 787 763
863 2 762 792 787 788
864 1 1771 792 787 763
865 6 809 808 735 736
866 4 813 808 735 736
867 5 813 808 735 738
868 1 623 813 808 735
869 3 734 813 808 735
870 2 734 813 808 809
871 6 824 823 698 699
872 4 825 823 698 699
873 5 825 823 698 704
874 1 614 825 823 698
875 3 697 825 823 698
876 2 697 825 823 824
877 4 1684 1678 1789 1790
878 2 573 1684 1678 1679
879 3 573 1684 1678 1789
880 1 1668 1684 1678 1789
881 4 1689 1686 1772 1773
882 2 1133 1689 1686 1687
883 3 1133 1689 1686 1772
884 1 1690 1689 1686 1772
885 4 1726 1720 1752 1753
886 1 1727 1726 1720 1752
887 2 1995 1726 1720 1721
888 3 1995 1726 1720 1752
889 6 1753 1752 1720 1721
890 4 1754 1752 1720 1721
891 5 1754 1752 1720 1726
892 1 1733 1754 1752 1720
893 3 1995 1754 1752 1720
894 2 1995 1754 1752 1753
895 6 1773 1772 1686 1687
896 4 1777 1772 1686 1687
897 5 1777 1772 1686 1689
898 3 1133 1777 1772 1686
899 2 1133 1777 1772 1773
900 1 1778 1777 1772 1686
901 6 1790 1789 1678 1679
902 4 1791 1789 1678 1679
903 5 1791 1789 1678 1684
904 3 573 1791 1789 1678
905 2 573 1791 1789 1790
906 1 1771 1791 1789 1678
907 7 1817 1814 1821 1668
908 9 1932 1814 1821 1668
909 8 1817 1814 1821 1815
910 10 1932 1814 1821 1815
911 7 1817 1814 1932 1733
912 9 1821 1814 1932 1733
913 8 1817 1814 1932 1930
914 10 1821 1814 1932 1930
915 7 1841 1838 1842 1690
916 9 1917 1838 1842 1690
917 8 1841 1838 1842 1839
918 10 1917 1838 1842 1839
919 7 1841 1838 1917 1727
920 9 1842 1838 1917 1727
921 8 1841 1838 1917 1912
922 10 1842 1838 1917 1912
923 7 1874 1871 1878 1771
924 9 1881 1871 1878 1771
925 8 1874 1871 1878 1872
926 10 1881 1871 1878 1872
927 7 1874 1871 1881 1778
928 9 1878 1871 1881 1778
929 8 1874 1871 1881 1879
930 10 1878 1871 1881 1879
931 9 687 1677 580 564
932 10 687 1677 580 574
933 7 1680 1677 580 564
934 8 1680 1677 580 574
935 9 580 1677 687 667
936 10 580 1677 687 685
937 7 1680 1677 687 667
938 8 1680 1677 687 685
939 12 1300 1690 1152 1146
940 11 1300 1690 1152 1697
941 12 1689 1690 1152 1146
942 11 1689 1690 1152 1697
943 12 1842 1690 1152 1146
944 11 1842 1690 1152 1697
945 11 1152 1690 1300 1296
946 12 1152 1690 1300 1297
947 11 1689 1690 1300 1296
948 12 1689 1690 1300 1297
949 11 1842 1690 1300 1296
950 12 1842 1690 1300 1297
951 11 1152 1690 1689 1133
952 12 1152 1690 1689 1686
953 11 1300 1690 1689 1133
954 12 1300 1690 1689 1686
955 11 1842 1690 1689 1133
956 12 1842 1690 1689 1686
957 11 1152 1690 1842 1838
958 11 1300 1690 1842 1838
959 11 1689 1690 1842 1838
960 12 1152 1690 1842 1839
961 12 1300 1690 1842 1839
962 12 1689 1690 1842 1839
963 10 1235 1697 1152 1146
964 9 1235 1697 1152 1690
965 8 1700 1697 1152 1146
966 7 1700 1697 1152 1690
967 10 1152 1697 1235 1233
968 9 1152 1697 1235 1788
969 8 1700 1697 1235 1233
970 7 1700 1697 1235 1788
971 7 1716 1713 1993 1718
972 9 2027 1713 1993 1718
973 8 1716 1713 1993 1990
974 10 2027 1713 1993 1990
975 7 1716 1713 2027 1727
976 9 1993 1713 2027 1727
977 8 1716 1713 2027 2022
978 10 1993 1713 2027 2022
979 12 1917 1727 1726 1720
980 11 1917 1727 1726 1995
981 12 2027 1727 1726 1720
982 11 2027 1727 1726 1995
983 12 2178 1727 1726 1720
984 11 2178 1727 1726 1995
985 11 1726 1727 1917 1838
986 11 2027 1727 1917 1838
987 11 2178 1727 1917 1838
988 12 1726 1727 1917 1912
989 12 2027 1727 1917 1912
990 12 2178 1727 1917 1912
991 11 1726 1727 2027 1713
992 11 1917 1727 2027 1713
993 11 2178 1727 2027 1713
994 12 1726 1727 2027 2022
995 12 1917 1727 2027 2022
996 12 2178 1727 2027 2022
997 11 1726 1727 2178 2085
998 11 1917 1727 2178 2085
999 11 2027 1727 2178 2085
1000 12 1726 1727 2178 2173
1001 12 1917 1727 2178 2173
1002 12 2027 1727 2178 2173
1003 4 1808 1802 1927 1928
1004 1 564 1808 1802 1927
1005 2 1801 1808 1802 1803
1006 3 1801 1808 1802 1927
1007 4 1842 1839 1912 1913
1008 1 1690 1842 1839 1912
1009 2 1838 1842 1839 1840
1010 3 1838 1842 1839 1912
1011 4 1870 1867 1891 1892
1012 1 1788 1870 1867 1891
1013 2 1866 1870 1867 1868
1014 3 1866 1870 1867 1891
1015 6 1892 1891 1867 1868
1016 4 1896 1891 1867 1868
1017 5 1896 1891 1867 1870
1018 1 667 1896 1891 1867
1019 3 1866 1896 1891 1867
1020 2 1866 1896 1891 1892
1021 6 1913 1912 1839 1840
1022 4 1917 1912 1839 1840
1023 5 1917 1912 1839 1842
1024 1 1727 1917 1912 1839
1025 3 1838 1917 1912 1839
1026 2 1838 1917 1912 1913
1027 6 1928 1927 1802 1803
1028 4 1929 1927 1802 1803
1029 5 1929 1927 1802 1808
1030 1 1718 1929 1927 1802
1031 3 1801 1929 1927 1802
1032 2 1801 1929 1927 1928
1033 7 562 559 1667 564
1034 9 1766 559 1667 564
1035 8 562 559 1667 1664
1036 10 1766 559 1667 1664
1037 7 562 559 1766 663
1038 9 1667 559 1766 663
1039 8 562 559 1766 1761
1040 10 1667 559 1766 1761
1041 12 717 564 580 574
1042 12 1667 564 580 574
1043 12 1808 564 580 574
1044 11 717 564 580 1677
1045 11 1667 564 580 1677
1046 11 1808 564 580 1677
1047 11 580 564 717 710
1048 11 1667 564 717 710
1049 11 1808 564 717 710
1050 12 580 564 717 711
1051 12 1667 564 717 711
1052 12 1808 564 717 711
1053 11 580 564 1667 559
1054 11 717 564 1667 559
1055 11 1808 564 1667 559
1056 12 580 564 1667 1664
1057 12 717 564 1667 1664
1058 12 1808 564 1667 1664
1059 11 580 564 1808 1801
1060 11 717 564 1808 1801
1061 11 1667 564 1808 1801
1062 12 580 564 1808 1802
1063 12 717 564 1808 1802
1064 12 1667 564 1808 1802
1065 10 121 581 33 30
1066 9 121 581 33 34
1067 8 584 581 33 30
1068 7 584 581 33 34
1069 10 33 581 121 116
1070 9 33 581 121 122
1071 8 584 581 121 116
1072 7 584 581 121 122
1073 7 627 624 904 629
1074 9 932 624 904 629
1075 8 627 624 904 901
1076 10 932 624 904 901
1077 7 627 624 932 638
1078 9 904 624 932 638
1079 8 627 624 932 927
1080 10 904 624 932 927
1081 12 828 629 650 648
1082 12 904 629 650 648
1083 12 1095 629 650 648
1084 11 828 629 650 891
1085 11 904 629 650 891
1086 11 1095 629 650 891
1087 11 650 629 828 710
1088 11 904 629 828 710
1089 11 1095 629 828 710
1090 12 650 629 828 826
1091 12 904 629 828 826
1092 12 1095 629 828 826
1093 11 650 629 904 624
1094 11 828 629 904 624
1095 11 1095 629 904 624
1096 12 650 629 904 901
1097 12 828 629 904 901
1098 12 1095 629 904 901
1099 11 650 629 1095 1015
1100 11 828 629 1095 1015
1101 11 904 629 1095 1015
1102 12 650 629 1095 1090
1103 12 828 629 1095 1090
1104 12 904 629 1095 1090
1105 4 717 711 826 827
1106 1 564 717 711 826
1107 2 710 717 711 712
1108 3 710 717 711 826
1109 4 748 745 799 800
1110 1 34 748 745 799
1111 2 744 748 745 746
1112 3 744 748 745 799
1113 4 753 750 778 779
1114 1 122 753 750 778
1115 2 749 753 750 751
1116 3 749 753 750 778
1117 6 779 778 750 751
1118 4 783 778 750 751
1119 5 783 778 750 753
1120 1 663 783 778 750
1121 3 749 783 778 750
1122 2 749 783 778 779
1123 6 800 799 745 746
1124 4 804 799 745 746
1125 5 804 799 745 748
1126 1 638 804 799 745
1127 3 744 804 799 745
1128 2 744 804 799 800
1129 6 827 826 711 712
1130 4 828 826 711 712
1131 5 828 826 711 717
1132 1 629 828 826 711
1133 3 710 828 826 711
1134 2 710 828 826 827
1135 4 563 560 657 658
1136 2 1663 563 560 561
1137 3 1663 563 560 657
1138 1 1668 563 560 657
1139 4 600 594 681 682
1140 1 34 600 594 681
1141 2 41 600 594 595
1142 3 41 600 594 681
1143 12 825 614 641 639
1144 12 889 614 641 639
1145 12 1083 614 641 639
1146 11 825 614 641 906
1147 11 889 614 641 906
1148 11 1083 614 641 906
1149 11 641 614 825 697
1150 11 889 614 825 697
1151 11 1083 614 825 697
1152 12 641 614 825 823
1153 12 889 614 825 823
1154 12 1083 614 825 823
1155 11 641 614 889 609
1156 11 825 614 889 609
1157 11 1083 614 889 609
1158 12 641 614 889 886
1159 12 825 614 889 886
1160 12 1083 614 889 886
1161 11 641 614 1083 1002
1162 11 825 614 1083 1002
1163 11 889 614 1083 1002
1164 12 641 614 1083 1081
1165 12 825 614 1083 1081
1166 12 889 614 1083 1081
1167 4 637 631 639 640
1168 1 638 637 631 639
1169 2 906 637 631 632
1170 3 906 637 631 639
1171 12 804 638 637 631
1172 11 804 638 637 906
1173 12 932 638 637 631
1174 11 932 638 637 906
1175 12 1098 638 637 631
1176 11 1098 638 637 906
1177 11 637 638 804 744
1178 11 932 638 804 744
1179 11 1098 638 804 744
1180 12 637 638 804 799
1181 12 932 638 804 799
1182 12 1098 638 804 799
1183 11 637 638 932 624
1184 11 804 638 932 624
1185 11 1098 638 932 624
1186 12 637 638 932 927
1187 12 804 638 932 927
1188 12 1098 638 932 927
1189 11 637 638 1098 994
1190 11 804 638 1098 994
1191 11 932 638 1098 994
1192 12 637 638 1098 1096
1193 12 804 638 1098 1096
1194 12 932 638 1098 1096
1195 6 640 639 631 632
1196 4 641 639 631 632
1197 5 641 639 631 637
1198 1 614 641 639 631
1199 3 906 641 639 631
1200 2 906 641 639 640
1201 6 658 657 560 561
1202 4 662 657 560 561
1203 5 662 657 560 563
1204 3 1663 662 657 560
1205 2 1663 662 657 658
1206 1 1767 662 657 560
1207 6 682 681 594 595
1208 4 683 681 594 595
1209 5 683 681 594 600
1210 3 41 683 681 594
1211 2 41 683 681 682
1212 1 132 683 681 594
1213 8 700 697 704 698
1214 10 825 697 704 698
1215 7 700 697 704 1668
1216 9 825 697 704 1668
1217 7 700 697 825 614
1218 9 704 697 825 614
1219 8 700 697 825 823
1220 10 704 697 825 823
1221 7 747 744 748 34
1222 9 804 744 748 34
1223 8 747 744 748 745
1224 10 804 744 748 745
1225 7 747 744 804 638
1226 9 748 744 804 638
1227 8 747 744 804 799
1228 10 748 744 804 799
1229 8 757 754 761 755
1230 10 786 754 761 755
1231 7 757 754 761 1767
1232 9 786 754 761 1767
1233 7 757 754 786 132
1234 9 761 754 786 132
1235 8 757 754 786 784
1236 10 761 754 786 784
1237 10 662 1663 563 560
1238 9 662 1663 563 1668
1239 8 1666 1663 563 560
1240 7 1666 1663 563 1668
1241 10 563 1663 662 657
1242 9 563 1663 662 1767
1243 8 1666 1663 662 657
1244 7 1666 1663 662 1767
1245 12 704 1668 563 560
1246 11 704 1668 563 1663
1247 12 1684 1668 563 560
1248 11 1684 1668 563 1663
1249 12 1821 1668 563 560
1250 11 1821 1668 563 1663
1251 11 563 1668 704 697
1252 12 563 1668 704 698
1253 11 1684 1668 704 697
1254 12 1684 1668 704 698
1255 11 1821 1668 704 697
1256 12 1821 1668 704 698
1257 11 563 1668 1684 573
1258 11 704 1668 1684 573
1259 11 1821 1668 1684 573
1260 12 563 1668 1684 1678
1261 12 704 1668 1684 1678
1262 12 1821 1668 1684 1678
1263 11 563 1668 1821 1814
1264 11 704 1668 1821 1814
1265 11 1684 1668 1821 1814
1266 12 563 1668 1821 1815
1267 12 704 1668 1821 1815
1268 12 1684 1668 1821 1815
1269 10 1225 1685 1137 1134
1270 9 1225 1685 1137 1138
1271 8 1688 1685 1137 1134
1272 7 1688 1685 1137 1138
1273 10 1137 1685 1225 1220
1274 9 1137 1685 1225 1226
1275 8 1688 1685 1225 1220
1276 7 1688 1685 1225 1226
1277 7 1731 1728 2008 1733
1278 9 2036 1728 2008 1733
1279 8 1731 1728 2008 2005
1280 10 2036 1728 2008 2005
1281 7 1731 1728 2036 1742
1282 9 2008 1728 2036 1742
1283 8 1731 1728 2036 2031
1284 10 2008 1728 2036 2031
1285 12 1932 1733 1754 1752
1286 12 2008 1733 1754 1752
1287 12 2199 1733 1754 1752
1288 11 1932 1733 1754 1995
1289 11 2008 1733 1754 1995
1290 11 2199 1733 1754 1995
1291 11 1754 1733 1932 1814
1292 11 2008 1733 1932 1814
1293 11 2199 1733 1932 1814
1294 12 1754 1733 1932 1930
1295 12 2008 1733 1932 1930
1296 12 2199 1733 1932 1930
1297 11 1754 1733 2008 1728
1298 11 1932 1733 2008 1728
1299 11 2199 1733 2008 1728
1300 12 1754 1733 2008 2005
1301 12 1932 1733 2008 2005
1302 12 2199 1733 2008 2005
1303 11 1754 1733 2199 2119
1304 11 1932 1733 2199 2119
1305 11 2008 1733 2199 2119
1306 12 1754 1733 2199 2194
1307 12 1932 1733 2199 2194
1308 12 2008 1733 2199 2194
1309 4 1821 1815 1930 1931
1310 1 1668 1821 1815 1930
1311 2 1814 1821 1815 1816
1312 3 1814 1821 1815 1930
1313 4 1852 1849 1903 1904
1314 1 1138 1852 1849 1903
1315 2 1848 1852 1849 1850
1316 3 1848 1852 1849 1903
1317 4 1857 1854 1882 1883
1318 1 1226 1857 1854 1882
1319 2 1853 1857 1854 1855
1320 3 1853 1857 1854 1882
1321 6 1883 1882 1854 1855
1322 4 1887 1882 1854 1855
1323 5 1887 1882 1854 1857
1324 1 1767 1887 1882 1854
1325 3 1853 1887 1882 1854
1326 2 1853 1887 1882 1883
1327 6 1904 1903 1849 1850
1328 4 1908 1903 1849 1850
1329 5 1908 1903 1849 1852
1330 1 1742 1908 1903 1849
1331 3 1848 1908 1903 1849
1332 2 1848 1908 1903 1904
1333 6 1931 1930 1815 1816
1334 4 1932 1930 1815 1816
1335 5 1932 1930 1815 1821
1336 1 1733 1932 1930 1815
1337 3 1814 1932 1930 1815
1338 2 1814 1932 1930 1931
1339 4 1667 1664 1761 1762
1340 2 559 1667 1664 1665
1341 3 559 1667 1664 1761
1342 1 564 1667 1664 1761
1343 4 1704 1698 1785 1786
1344 1 1138 1704 1698 1785
1345 2 1145 1704 1698 1699
1346 3 1145 1704 1698 1785
1347 12 1929 1718 1745 1743
1348 12 1993 1718 1745 1743
1349 12 2187 1718 1745 1743
1350 11 1929 1718 1745 2010
1351 11 1993 1718 1745 2010
1352 11 2187 1718 1745 2010
1353 11 1745 1718 1929 1801
1354 11 1993 1718 1929 1801
1355 11 2187 1718 1929 1801
1356 12 1745 1718 1929 1927
1357 12 1993 1718 1929 1927
1358 12 2187 1718 1929 1927
1359 11 1745 1718 1993 1713
1360 11 1929 1718 1993 1713
1361 11 2187 1718 1993 1713
1362 12 1745 1718 1993 1990
1363 12 1929 1718 1993 1990
1364 12 2187 1718 1993 1990
1365 11 1745 1718 2187 2106
1366 11 1929 1718 2187 2106
1367 11 1993 1718 2187 2106
1368 12 1745 1718 2187 2185
1369 12 1929 1718 2187 2185
1370 12 1993 1718 2187 2185
1371 4 1741 1735 1743 1744
1372 1 1742 1741 1735 1743
1373 2 2010 1741 1735 1736
1374 3 2010 1741 1735 1743
1375 12 1908 1742 1741 1735
1376 11 1908 1742 1741 2010
1377 12 2036 1742 1741 1735
1378 11 2036 1742 1741 2010
1379 12 2202 1742 1741 1735
1380 11 2202 1742 1741 2010
1381 11 1741 1742 1908 1848
1382 11 2036 1742 1908 1848
1383 11 2202 1742 1908 1848
1384 12 1741 1742 1908 1903
1385 12 2036 1742 1908 1903
1386 12 2202 1742 1908 1903
1387 11 1741 1742 2036 1728
1388 11 1908 1742 2036 1728
1389 11 2202 1742 2036 1728
1390 12 1741 1742 2036 2031
1391 12 1908 1742 2036 2031
1392 12 2202 1742 2036 2031
1393 11 1741 1742 2202 2098
1394 11 1908 1742 2202 2098
1395 11 2036 1742 2202 2098
1396 12 1741 1742 2202 2200
1397 12 1908 1742 2202 2200
1398 12 2036 1742 2202 2200
1399 6 1744 1743 1735 1736
1400 4 1745 1743 1735 1736
1401 5 1745 1743 1735 1741
1402 1 1718 1745 1743 1735
1403 3 2010 1745 1743 1735
1404 2 2010 1745 1743 1744
1405 6 1762 1761 1664 1665
1406 4 1766 1761 1664 1665
1407 5 1766 1761 1664 1667
1408 3 559 1766 1761 1664
1409 2 559 1766 1761 1762
1410 1 663 1766 1761 1664
1411 6 1786 1785 1698 1699
1412 4 1787 1785 1698 1699
1413 5 1787 1785 1698 1704
1414 3 1145 1787 1785 1698
1415 2 1145 1787 1785 1786
1416 1 1236 1787 1785 1698
1417 7 1804 1801 1808 564
1418 9 1929 1801 1808 564
1419 8 1804 1801 1808 1802
1420 10 1929 1801 1808 1802
1421 7 1804 1801 1929 1718
1422 9 1808 1801 1929 1718
1423 8 1804 1801 1929 1927
1424 10 1808 1801 1929 1927
1425 7 1851 1848 1852 1138
1426 9 1908 1848 1852 1138
1427 8 1851 1848 1852 1849
1428 10 1908 1848 1852 1849
1429 7 1851 1848 1908 1742
1430 9 1852 1848 1908 1742
1431 8 1851 1848 1908 1903
1432 10 1852 1848 1908 1903
1433 7 1861 1858 1865 663
1434 9 1890 1858 1865 663
1435 8 1861 1858 1865 1859
1436 10 1890 1858 1865 1859
1437 7 1861 1858 1890 1236
1438 9 1865 1858 1890 1236
1439 8 1861 1858 1890 1888
1440 10 1865 1858 1890 1888
1441 7 4 1 557 6
1442 9 693 1 557 6
1443 8 4 1 557 554
1444 10 693 1 557 554
1445 7 4 1 693 122
1446 9 557 1 693 122
1447 8 4 1 693 688
1448 10 557 1 693 688
1449 7 52 49 1160 40
1450 9 1218 49 1160 40
1451 8 52 49 1160 1154
1452 10 1218 49 1160 1154
1453 7 52 49 1218 115
1454 9 1160 49 1218 115
1455 8 52 49 1218 1216
1456 10 1160 49 1218 1216
1457 8 66 63 346 340
1458 10 374 63 346 340
1459 7 66 63 346 347
1460 9 374 63 346 347
1461 7 66 63 374 353
1462 9 346 63 374 353
1463 8 66 63 374 372
1464 10 346 63 374 372
1465 12 222 115 135 133
1466 12 1218 115 135 133
1467 12 1344 115 135 133
1468 11 222 115 135 1125
1469 11 1218 115 135 1125
1470 11 1344 115 135 1125
1471 11 135 115 222 215
1472 11 1218 115 222 215
1473 11 1344 115 222 215
1474 12 135 115 222 216
1475 12 1218 115 222 216
1476 12 1344 115 222 216
1477 11 135 115 1218 49
1478 11 222 115 1218 49
1479 11 1344 115 1218 49
1480 12 135 115 1218 1216
1481 12 222 115 1218 1216
1482 12 1344 115 1218 1216
1483 11 135 115 1344 1314
1484 11 222 115 1344 1314
1485 11 1218 115 1344 1314
1486 12 135 115 1344 1339
1487 12 222 115 1344 1339
1488 12 1218 115 1344 1339
1489 12 225 122 121 116
1490 11 225 122 121 581
1491 12 693 122 121 116
1492 11 693 122 121 581
1493 12 753 122 121 116
1494 11 753 122 121 581
1495 11 121 122 225 215
1496 11 693 122 225 215
1497 11 753 122 225 215
1498 12 121 122 225 223
1499 12 693 122 225 223
1500 12 753 122 225 223
1501 11 121 122 693 1
1502 11 225 122 693 1
1503 11 753 122 693 1
1504 12 121 122 693 688
1505 12 225 122 693 688
1506 12 753 122 693 688
1507 11 121 122 753 749
1508 11 225 122 753 749
1509 11 693 122 753 749
1510 12 121 122 753 750
1511 12 225 122 753 750
1512 12 693 122 753 750
1513 4 157 154 241 242
1514 1 6 157 154 241
1515 2 153 157 154 155
1516 3 153 157 154 241
1517 4 191 188 262 263
1518 1 40 191 188 262
1519 2 187 191 188 189
1520 3 187 191 188 262
1521 4 222 216 223 224
1522 1 115 222 216 223
1523 2 215 222 216 217
1524 3 215 222 216 223
1525 6 224 223 216 217
1526 4 225 223 216 217
1527 5 225 223 216 222
1528 1 122 225 223 216
1529 3 215 225 223 216
1530 2 215 225 223 224
1531 6 242 241 154 155
1532 4 246 241 154 155
1533 5 246 241 154 157
1534 3 153 246 241 154
1535 2 153 246 241 242
1536 1 347 246 241 154
1537 6 263 262 188 189
1538 4 267 262 188 189
1539 5 267 262 188 191
1540 3 187 267 262 188
1541 2 187 267 262 263
1542 1 353 267 262 188
1543 12 157 6 20 14
1544 12 557 6 20 14
1545 12 725 6 20 14
1546 11 157 6 20 565
1547 11 557 6 20 565
1548 11 725 6 20 565
1549 11 20 6 157 153
1550 11 557 6 157 153
1551 11 725 6 157 153
1552 12 20 6 157 154
1553 12 557 6 157 154
1554 12 725 6 157 154
1555 11 20 6 557 1
1556 11 157 6 557 1
1557 11 725 6 557 1
1558 12 20 6 557 554
1559 12 157 6 557 554
1560 12 725 6 557 554
1561 11 20 6 725 718
1562 11 157 6 725 718
1563 11 557 6 725 718
1564 12 20 6 725 719
1565 12 157 6 725 719
1566 12 557 6 725 719
1567 4 20 14 142 143
1568 1 6 20 14 142
1569 2 565 20 14 15
1570 3 565 20 14 142
1571 4 56 50 112 113
1572 1 1144 56 50 112
1573 2 1153 56 50 51
1574 3 1153 56 50 112
1575 4 61 58 90 91
1576 2 333 61 58 59
1577 3 333 61 58 90
1578 1 338 61 58 90
1579 6 91 90 58 59
1580 4 95 90 58 59
1581 5 95 90 58 61
1582 3 333 95 90 58
1583 2 333 95 90 91
1584 1 347 95 90 58
1585 6 113 112 50 51
1586 4 114 112 50 51
1587 5 114 112 50 56
1588 3 1153 114 112 50
1589 2 1153 114 112 113
1590 1 1219 114 112 50
1591 12 214 132 144 142
1592 12 683 132 144 142
1593 12 786 132 144 142
1594 11 214 132 144 565
1595 11 683 132 144 565
1596 11 786 132 144 565
1597 11 144 132 214 210
1598 11 683 132 214 210
1599 11 786 132 214 210
1600 12 144 132 214 211
1601 12 683 132 214 211
1602 12 786 132 214 211
1603 11 144 132 683 41
1604 11 214 132 683 41
1605 11 786 132 683 41
1606 12 144 132 683 681
1607 12 214 132 683 681
1608 12 786 132 683 681
1609 11 144 132 786 754
1610 11 214 132 786 754
1611 11 683 132 786 754
1612 12 144 132 786 784
1613 12 214 132 786 784
1614 12 683 132 786 784
1615 6 143 142 14 15
1616 4 144 142 14 15
1617 5 144 142 14 20
1618 1 132 144 142 14
1619 3 565 144 142 14
1620 2 565 144 142 143
1621 7 156 153 157 6
1622 9 246 153 157 6
1623 8 156 153 157 154
1624 10 246 153 157 154
1625 8 156 153 246 241
1626 10 157 153 246 241
1627 7 156 153 246 347
1628 9 157 153 246 347
1629 8 177 174 181 175
1630 10 255 174 181 175
1631 7 177 174 181 1144
1632 9 255 174 181 1144
1633 8 177 174 255 253
1634 10 181 174 255 253
1635 7 177 174 255 338
1636 9 181 174 255 338
1637 7 213 210 214 132
1638 9 240 210 214 132
1639 8 213 210 214 211
1640 10 240 210 214 211
1641 8 213 210 240 235
1642 10 214 210 240 235
1643 7 213 210 240 1219
1644 9 214 210 240 1219
1645 7 1108 1105 1661 1110
1646 9 1797 1105 1661 1110
1647 8 1108 1105 1661 1658
1648 10 1797 1105 1661 1658
1649 7 1108 1105 1797 1226
1650 9 1661 1105 1797 1226
1651 8 1108 1105 1797 1792
1652 10 1661 1105 1797 1792
1653 10 114 1153 56 50
1654 9 114 1153 56 1144
1655 8 1156 1153 56 50
1656 7 1156 1153 56 1144
1657 10 56 1153 114 112
1658 9 56 1153 114 1219
1659 8 1156 1153 114 112
1660 7 1156 1153 114 1219
1661 8 1170 1167 1450 1444
1662 10 1478 1167 1450 1444
1663 7 1170 1167 1450 1451
1664 9 1478 1167 1450 1451
1665 7 1170 1167 1478 1457
1666 9 1450 1167 1478 1457
1667 8 1170 1167 1478 1476
1668 10 1450 1167 1478 1476
1669 12 240 1219 114 112
1670 11 240 1219 114 1153
1671 12 1239 1219 114 112
1672 11 1239 1219 114 1153
1673 12 1326 1219 114 112
1674 11 1326 1219 114 1153
1675 11 114 1219 240 210
1676 12 114 1219 240 235
1677 11 1239 1219 240 210
1678 12 1239 1219 240 235
1679 11 1326 1219 240 210
1680 12 1326 1219 240 235
1681 11 114 1219 1239 21
1682 11 240 1219 1239 21
1683 11 1326 1219 1239 21
1684 12 114 1219 1239 1237
1685 12 240 1219 1239 1237
1686 12 1326 1219 1239 1237
1687 11 114 1219 1326 1319
1688 11 240 1219 1326 1319
1689 11 1239 1219 1326 1319
1690 12 114 1219 1326 1320
1691 12 240 1219 1326 1320
1692 12 1239 1219 1326 1320
1693 12 1329 1226 1225 1220
1694 11 1329 1226 1225 1685
1695 12 1797 1226 1225 1220
1696 11 1797 1226 1225 1685
1697 12 1857 1226 1225 1220
1698 11 1857 1226 1225 1685
1699 11 1225 1226 1329 1319
1700 11 1797 1226 1329 1319
1701 11 1857 1226 1329 1319
1702 12 1225 1226 1329 1327
1703 12 1797 1226 1329 1327
1704 12 1857 1226 1329 1327
1705 11 1225 1226 1797 1105
1706 11 1329 1226 1797 1105
1707 11 1857 1226 1797 1105
1708 12 1225 1226 1797 1792
1709 12 1329 1226 1797 1792
1710 12 1857 1226 1797 1792
1711 11 1225 1226 1857 1853
1712 11 1329 1226 1857 1853
1713 11 1797 1226 1857 1853
1714 12 1225 1226 1857 1854
1715 12 1329 1226 1857 1854
1716 12 1797 1226 1857 1854
1717 4 1261 1258 1345 1346
1718 1 1110 1261 1258 1345
1719 2 1257 1261 1258 1259
1720 3 1257 1261 1258 1345
1721 4 1295 1292 1366 1367
1722 1 1144 1295 1292 1366
1723 2 1291 1295 1292 1293
1724 3 1291 1295 1292 1366
1725 4 1326 1320 1327 1328
1726 1 1219 1326 1320 1327
1727 2 1319 1326 1320 1321
1728 3 1319 1326 1320 1327
1729 6 1328 1327 1320 1321
1730 4 1329 1327 1320 1321
1731 5 1329 1327 1320 1326
1732 1 1226 1329 1327 1320
1733 3 1319 1329 1327 1320
1734 2 1319 1329 1327 1328
1735 6 1346 1345 1258 1259
1736 4 1350 1345 1258 1259
1737 5 1350 1345 1258 1261
1738 3 1257 1350 1345 1258
1739 2 1257 1350 1345 1346
1740 1 1451 1350 1345 1258
1741 6 1367 1366 1292 1293
1742 4 1371 1366 1292 1293
1743 5 1371 1366 1292 1295
1744 3 1291 1371 1366 1292
1745 2 1291 1371 1366 1367
1746 1 1457 1371 1366 1292
1747 12 1261 1110 1124 1118
1748 12 1661 1110 1124 1118
1749 12 1829 1110 1124 1118
1750 11 1261 1110 1124 1669
1751 11 1661 1110 1124 1669
1752 11 1829 1110 1124 1669
1753 11 1124 1110 1261 1257
1754 11 1661 1110 1261 1257
1755 11 1829 1110 1261 1257
1756 12 1124 1110 1261 1258
1757 12 1661 1110 1261 1258
1758 12 1829 1110 1261 1258
1759 11 1124 1110 1661 1105
1760 11 1261 1110 1661 1105
1761 11 1829 1110 1661 1105
1762 12 1124 1110 1661 1658
1763 12 1261 1110 1661 1658
1764 12 1829 1110 1661 1658
1765 11 1124 1110 1829 1822
1766 11 1261 1110 1829 1822
1767 11 1661 1110 1829 1822
1768 12 1124 1110 1829 1823
1769 12 1261 1110 1829 1823
1770 12 1661 1110 1829 1823
1771 4 1124 1118 1246 1247
1772 1 1110 1124 1118 1246
1773 2 1669 1124 1118 1119
1774 3 1669 1124 1118 1246
1775 4 1160 1154 1216 1217
1776 1 40 1160 1154 1216
1777 2 49 1160 1154 1155
1778 3 49 1160 1154 1216
1779 4 1165 1162 1194 1195
1780 2 1437 1165 1162 1163
1781 3 1437 1165 1162 1194
1782 1 1442 1165 1162 1194
1783 6 1195 1194 1162 1163
1784 4 1199 1194 1162 1163
1785 5 1199 1194 1162 1165
1786 3 1437 1199 1194 1162
1787 2 1437 1199 1194 1195
1788 1 1451 1199 1194 1162
1789 6 1217 1216 1154 1155
1790 4 1218 1216 1154 1155
1791 5 1218 1216 1154 1160
1792 3 49 1218 1216 1154
1793 2 49 1218 1216 1217
1794 1 115 1218 1216 1154
1795 12 1318 1236 1248 1246
1796 12 1787 1236 1248 1246
1797 12 1890 1236 1248 1246
1798 11 1318 1236 1248 1669
1799 11 1787 1236 1248 1669
1800 11 1890 1236 1248 1669
1801 11 1248 1236 1318 1314
1802 11 1787 1236 1318 1314
1803 11 1890 1236 1318 1314
1804 12 1248 1236 1318 1315
1805 12 1787 1236 1318 1315
1806 12 1890 1236 1318 1315
1807 11 1248 1236 1787 1145
1808 11 1318 1236 1787 1145
1809 11 1890 1236 1787 1145
1810 12 1248 1236 1787 1785
1811 12 1318 1236 1787 1785
1812 12 1890 1236 1787 1785
1813 11 1248 1236 1890 1858
1814 11 1318 1236 1890 1858
1815 11 1787 1236 1890 1858
1816 12 1248 1236 1890 1888
1817 12 1318 1236 1890 1888
1818 12 1787 1236 1890 1888
1819 6 1247 1246 1118 1119
1820 4 1248 1246 1118 1119
1821 5 1248 1246 1118 1124
1822 1 1236 1248 1246 1118
1823 3 1669 1248 1246 1118
1824 2 1669 1248 1246 1247
1825 7 1260 1257 1261 1110
1826 9 1350 1257 1261 1110
1827 8 1260 1257 1261 1258
1828 10 1350 1257 1261 1258
1829 8 1260 1257 1350 1345
1830 10 1261 1257 1350 1345
1831 7 1260 1257 1350 1451
1832 9 1261 1257 1350 1451
1833 7 1281 1278 1285 40
1834 9 1359 1278 1285 40
1835 8 1281 1278 1285 1279
1836 10 1359 1278 1285 1279
1837 8 1281 1278 1359 1357
1838 10 1285 1278 1359 1357
1839 7 1281 1278 1359 1442
1840 9 1285 1278 1359 1442
1841 7 1317 1314 1318 1236
1842 9 1344 1314 1318 1236
1843 8 1317 1314 1318 1315
1844 10 1344 1314 1318 1315
1845 7 1317 1314 1344 115
1846 9 1318 1314 1344 115
1847 8 1317 1314 1344 1339
1848 10 1318 1314 1344 1339
1849 4 5 2 136 137
1850 2 553 5 2 3
1851 3 553 5 2 136
1852 1 558 5 2 136
1853 4 39 36 123 124
1854 1 40 39 36 123
1855 2 1139 39 36 37
1856 3 1139 39 36 123
1857 12 191 40 39 36
1858 11 191 40 39 1139
1859 12 1160 40 39 36
1860 11 1160 40 39 1139
1861 12 1285 40 39 36
1862 11 1285 40 39 1139
1863 11 39 40 191 187
1864 11 1160 40 191 187
1865 11 1285 40 191 187
1866 12 39 40 191 188
1867 12 1160 40 191 188
1868 12 1285 40 191 188
1869 11 39 40 1160 49
1870 11 191 40 1160 49
1871 11 1285 40 1160 49
1872 12 39 40 1160 1154
1873 12 191 40 1160 1154
1874 12 1285 40 1160 1154
1875 11 39 40 1285 1278
1876 11 191 40 1285 1278
1877 11 1160 40 1285 1278
1878 12 39 40 1285 1279
1879 12 191 40 1285 1279
1880 12 1160 40 1285 1279
1881 4 76 73 99 100
1882 2 348 76 73 74
1883 3 348 76 73 99
1884 1 353 76 73 99
1885 6 100 99 73 74
1886 4 104 99 73 74
1887 5 104 99 73 76
1888 3 348 104 99 73
1889 2 348 104 99 100
1890 1 362 104 99 73
1891 12 231 111 128 123
1892 12 1214 111 128 123
1893 12 1313 111 128 123
1894 11 231 111 128 1139
1895 11 1214 111 128 1139
1896 11 1313 111 128 1139
1897 11 128 111 231 197
1898 11 1214 111 231 197
1899 11 1313 111 231 197
1900 12 128 111 231 226
1901 12 1214 111 231 226
1902 12 1313 111 231 226
1903 11 128 111 1214 7
1904 11 231 111 1214 7
1905 11 1313 111 1214 7
1906 12 128 111 1214 1209
1907 12 231 111 1214 1209
1908 12 1313 111 1214 1209
1909 11 128 111 1313 1306
1910 11 231 111 1313 1306
1911 11 1214 111 1313 1306
1912 12 128 111 1313 1307
1913 12 231 111 1313 1307
1914 12 1214 111 1313 1307
1915 6 124 123 36 37
1916 4 128 123 36 37
1917 5 128 123 36 39
1918 1 111 128 123 36
1919 3 1139 128 123 36
1920 2 1139 128 123 124
1921 6 137 136 2 3
1922 4 141 136 2 3
1923 5 141 136 2 5
1924 3 553 141 136 2
1925 2 553 141 136 137
1926 1 674 141 136 2
1927 8 169 166 173 167
1928 10 270 166 173 167
1929 7 169 166 173 558
1930 9 270 166 173 558
1931 8 169 166 270 268
1932 10 173 166 270 268
1933 7 169 166 270 362
1934 9 173 166 270 362
1935 7 190 187 191 40
1936 9 267 187 191 40
1937 8 190 187 191 188
1938 10 267 187 191 188
1939 8 190 187 267 262
1940 10 191 187 267 262
1941 7 190 187 267 353
1942 9 191 187 267 353
1943 8 200 197 201 198
1944 10 231 197 201 198
1945 7 200 197 201 674
1946 9 231 197 201 674
1947 7 200 197 231 111
1948 9 201 197 231 111
1949 8 200 197 231 226
1950 10 201 197 231 226
1951 7 16 13 572 558
1952 9 696 13 572 558
1953 8 16 13 572 566
1954 10 696 13 572 566
1955 7 16 13 696 684
1956 9 572 13 696 684
1957 8 16 13 696 694
1958 10 572 13 696 694
1959 8 38 35 1143 1140
1960 10 1232 35 1143 1140
1961 7 38 35 1143 1144
1962 9 1232 35 1143 1144
1963 7 38 35 1232 1215
1964 9 1143 35 1232 1215
1965 8 38 35 1232 1227
1966 10 1143 35 1232 1227
1967 8 81 78 361 355
1968 10 365 78 361 355
1969 7 81 78 361 362
1970 9 365 78 361 362
1971 7 81 78 365 338
1972 9 361 78 365 338
1973 8 81 78 365 363
1974 10 361 78 365 363
1975 4 173 167 268 269
1976 2 166 173 167 168
1977 3 166 173 167 268
1978 1 558 173 167 268
1979 4 181 175 253 254
1980 2 174 181 175 176
1981 3 174 181 175 253
1982 1 1144 181 175 253
1983 4 209 203 232 233
1984 2 202 209 203 204
1985 3 202 209 203 232
1986 1 1215 209 203 232
1987 6 233 232 203 204
1988 4 234 232 203 204
1989 5 234 232 203 209
1990 3 202 234 232 203
1991 2 202 234 232 233
1992 1 684 234 232 203
1993 6 254 253 175 176
1994 4 255 253 175 176
1995 5 255 253 175 181
1996 3 174 255 253 175
1997 2 174 255 253 254
1998 1 338 255 253 175
1999 6 269 268 167 168
2000 4 270 268 167 168
2001 5 270 268 167 173
2002 3 166 270 268 167
2003 2 166 270 268 269
2004 1 362 270 268 167
2005 4 1109 1106 1240 1241
2006 2 1657 1109 1106 1107
2007 3 1657 1109 1106 1240
2008 1 1662 1109 1106 1240
2009 4 1143 1140 1227 1228
2010 2 35 1143 1140 1141
2011 3 35 1143 1140 1227
2012 1 1144 1143 1140 1227
2013 12 181 1144 56 50
2014 11 181 1144 56 1153
2015 12 1143 1144 56 50
2016 11 1143 1144 56 1153
2017 12 1295 1144 56 50
2018 11 1295 1144 56 1153
2019 11 56 1144 181 174
2020 12 56 1144 181 175
2021 11 1143 1144 181 174
2022 12 1143 1144 181 175
2023 11 1295 1144 181 174
2024 12 1295 1144 181 175
2025 11 56 1144 1143 35
2026 12 56 1144 1143 1140
2027 11 181 1144 1143 35
2028 12 181 1144 1143 1140
2029 11 1295 1144 1143 35
2030 12 1295 1144 1143 1140
2031 11 56 1144 1295 1291
2032 11 181 1144 1295 1291
2033 11 1143 1144 1295 1291
2034 12 56 1144 1295 1292
2035 12 181 1144 1295 1292
2036 12 1143 1144 1295 1292
2037 4 1180 1177 1203 1204
2038 2 1452 1180 1177 1178
2039 3 1452 1180 1177 1203
2040 1 1457 1180 1177 1203
2041 6 1204 1203 1177 1178
2042 4 1208 1203 1177 1178
2043 5 1208 1203 1177 1180
2044 3 1452 1208 1203 1177
2045 2 1452 1208 1203 1204
2046 1 1466 1208 1203 1177
2047 12 209 1215 110 105
2048 11 209 1215 110 1111
2049 12 1232 1215 110 105
2050 11 1232 1215 110 1111
2051 12 1335 1215 110 105
2052 11 1335 1215 110 1111
2053 11 110 1215 209 202
2054 12 110 1215 209 203
2055 11 1232 1215 209 202
2056 12 1232 1215 209 203
2057 11 1335 1215 209 202
2058 12 1335 1215 209 203
2059 11 110 1215 1232 35
2060 11 209 1215 1232 35
2061 11 1335 1215 1232 35
2062 12 110 1215 1232 1227
2063 12 209 1215 1232 1227
2064 12 1335 1215 1232 1227
2065 11 110 1215 1335 1301
2066 11 209 1215 1335 1301
2067 11 1232 1215 1335 1301
2068 12 110 1215 1335 1330
2069 12 209 1215 1335 1330
2070 12 1232 1215 1335 1330
2071 6 1228 1227 1140 1141
2072 4 1232 1227 1140 1141
2073 5 1232 1227 1140 1143
2074 3 35 1232 1227 1140
2075 2 35 1232 1227 1228
2076 1 1215 1232 1227 1140
2077 6 1241 1240 1106 1107
2078 4 1245 1240 1106 1107
2079 5 1245 1240 1106 1109
2080 3 1657 1245 1240 1106
2081 2 1657 1245 1240 1241
2082 1 1778 1245 1240 1106
2083 8 1273 1270 1277 1271
2084 10 1374 1270 1277 1271
2085 7 1273 1270 1277 1662
2086 9 1374 1270 1277 1662
2087 8 1273 1270 1374 1372
2088 10 1277 1270 1374 1372
2089 7 1273 1270 1374 1466
2090 9 1277 1270 1374 1466
2091 7 1294 1291 1295 1144
2092 9 1371 1291 1295 1144
2093 8 1294 1291 1295 1292
2094 10 1371 1291 1295 1292
2095 8 1294 1291 1371 1366
2096 10 1295 1291 1371 1366
2097 7 1294 1291 1371 1457
2098 9 1295 1291 1371 1457
2099 8 1304 1301 1305 1302
2100 10 1335 1301 1305 1302
2101 7 1304 1301 1305 1778
2102 9 1335 1301 1305 1778
2103 7 1304 1301 1335 1215
2104 9 1305 1301 1335 1215
2105 8 1304 1301 1335 1330
2106 10 1305 1301 1335 1330
2107 7 1120 1117 1676 1662
2108 9 1800 1117 1676 1662
2109 8 1120 1117 1676 1670
2110 10 1800 1117 1676 1670
2111 7 1120 1117 1800 1788
2112 9 1676 1117 1800 1788
2113 8 1120 1117 1800 1798
2114 10 1676 1117 1800 1798
2115 10 128 1139 39 36
2116 9 128 1139 39 40
2117 8 1142 1139 39 36
2118 7 1142 1139 39 40
2119 9 39 1139 128 111
2120 10 39 1139 128 123
2121 7 1142 1139 128 111
2122 8 1142 1139 128 123
2123 8 1185 1182 1465 1459
2124 10 1469 1182 1465 1459
2125 7 1185 1182 1465 1466
2126 9 1469 1182 1465 1466
2127 7 1185 1182 1469 1442
2128 9 1465 1182 1469 1442
2129 8 1185 1182 1469 1467
2130 10 1465 1182 1469 1467
2131 4 1277 1271 1372 1373
2132 2 1270 1277 1271 1272
2133 3 1270 1277 1271 1372
2134 1 1662 1277 1271 1372
2135 4 1285 1279 1357 1358
2136 1 40 1285 1279 1357
2137 2 1278 1285 1279 1280
2138 3 1278 1285 1279 1357
2139 4 1313 1307 1336 1337
2140 1 111 1313 1307 1336
2141 2 1306 1313 1307 1308
2142 3 1306 1313 1307 1336
2143 6 1337 1336 1307 1308
2144 4 1338 1336 1307 1308
2145 5 1338 1336 1307 1313
2146 3 1306 1338 1336 1307
2147 2 1306 1338 1336 1337
2148 1 1788 1338 1336 1307
2149 6 1358 1357 1279 1280
2150 4 1359 1357 1279 1280
2151 5 1359 1357 1279 1285
2152 3 1278 1359 1357 1279
2153 2 1278 1359 1357 1358
2154 1 1442 1359 1357 1279
2155 6 1373 1372 1271 1272
2156 4 1374 1372 1271 1272
2157 5 1374 1372 1271 1277
2158 3 1270 1374 1372 1271
2159 2 1270 1374 1372 1373
2160 1 1466 1374 1372 1271
2161 10 141 553 5 2
2162 9 141 553 5 558
2163 8 556 553 5 2
2164 7 556 553 5 558
2165 10 5 553 141 136
2166 9 5 553 141 674
2167 8 556 553 141 136
2168 7 556 553 141 674
2169 7 604 601 1712 592
2170 9 1770 601 1712 592
2171 8 604 601 1712 1706
2172 10 1770 601 1712 1706
2173 7 604 601 1770 667
2174 9 1712 601 1770 667
2175 8 604 601 1770 1768
2176 10 1712 601 1770 1768
2177 8 618 615 898 892
2178 10 926 615 898 892
2179 7 618 615 898 899
2180 9 926 615 898 899
2181 7 618 615 926 905
2182 9 898 615 926 905
2183 8 618 615 926 924
2184 10 898 615 926 924
2185 12 774 667 687 685
2186 12 1770 667 687 685
2187 12 1896 667 687 685
2188 11 774 667 687 1677
2189 11 1770 667 687 1677
2190 11 1896 667 687 1677
2191 11 687 667 774 767
2192 11 1770 667 774 767
2193 11 1896 667 774 767
2194 12 687 667 774 768
2195 12 1770 667 774 768
2196 12 1896 667 774 768
2197 11 687 667 1770 601
2198 11 774 667 1770 601
2199 11 1896 667 1770 601
2200 12 687 667 1770 1768
2201 12 774 667 1770 1768
2202 12 1896 667 1770 1768
2203 11 687 667 1896 1866
2204 11 774 667 1896 1866
2205 11 1770 667 1896 1866
2206 12 687 667 1896 1891
2207 12 774 667 1896 1891
2208 12 1770 667 1896 1891
2209 12 201 674 141 136
2210 11 201 674 141 553
2211 12 673 674 141 136
2212 11 673 674 141 553
2213 12 777 674 141 136
2214 11 777 674 141 553
2215 11 141 674 201 197
2216 12 141 674 201 198
2217 11 673 674 201 197
2218 12 673 674 201 198
2219 11 777 674 201 197
2220 12 777 674 201 198
2221 11 141 674 673 29
2222 12 141 674 673 668
2223 11 201 674 673 29
2224 12 201 674 673 668
2225 11 777 674 673 29
2226 12 777 674 673 668
2227 11 141 674 777 767
2228 11 201 674 777 767
2229 11 673 674 777 767
2230 12 141 674 777 775
2231 12 201 674 777 775
2232 12 673 674 777 775
2233 4 709 706 793 794
2234 1 558 709 706 793
2235 2 705 709 706 707
2236 3 705 709 706 793
2237 4 743 740 814 815
2238 1 592 743 740 814
2239 2 739 743 740 741
2240 3 739 743 740 814
2241 4 774 768 775 776
2242 1 667 774 768 775
2243 2 767 774 768 769
2244 3 767 774 768 775
2245 6 776 775 768 769
2246 4 777 775 768 769
2247 5 777 775 768 774
2248 1 674 777 775 768
2249 3 767 777 775 768
2250 2 767 777 775 776
2251 6 794 793 706 707
2252 4 798 793 706 707
2253 5 798 793 706 709
2254 3 705 798 793 706
2255 2 705 798 793 794
2256 1 899 798 793 706
2257 6 815 814 740 741
2258 4 819 814 740 741
2259 5 819 814 740 743
2260 3 739 819 814 740
2261 2 739 819 814 815
2262 1 905 819 814 740
2263 12 173 558 5 2
2264 11 173 558 5 553
2265 12 572 558 5 2
2266 11 572 558 5 553
2267 12 709 558 5 2
2268 11 709 558 5 553
2269 11 5 558 173 166
2270 12 5 558 173 167
2271 11 572 558 173 166
2272 12 572 558 173 167
2273 11 709 558 173 166
2274 12 709 558 173 167
2275 11 5 558 572 13
2276 11 173 558 572 13
2277 11 709 558 572 13
2278 12 5 558 572 566
2279 12 173 558 572 566
2280 12 709 558 572 566
2281 11 5 558 709 705
2282 11 173 558 709 705
2283 11 572 558 709 705
2284 12 5 558 709 706
2285 12 173 558 709 706
2286 12 572 558 709 706
2287 4 572 566 694 695
2288 2 13 572 566 567
2289 3 13 572 566 694
2290 1 558 572 566 694
2291 4 608 602 664 665
2292 1 1696 608 602 664
2293 2 1705 608 602 603
2294 3 1705 608 602 664
2295 4 613 610 642 643
2296 2 885 613 610 611
2297 3 885 613 610 642
2298 1 890 613 610 642
2299 6 643 642 610 611
2300 4 647 642 610 611
2301 5 647 642 610 613
2302 3 885 647 642 610
2303 2 885 647 642 643
2304 1 899 647 642 610
2305 6 665 664 602 603
2306 4 666 664 602 603
2307 5 666 664 602 608
2308 3 1705 666 664 602
2309 2 1705 666 664 665
2310 1 1771 666 664 602
2311 12 234 684 131 129
2312 11 234 684 131 593
2313 12 696 684 131 129
2314 11 696 684 131 593
2315 12 766 684 131 129
2316 11 766 684 131 593
2317 11 131 684 234 202
2318 12 131 684 234 232
2319 11 696 684 234 202
2320 12 696 684 234 232
2321 11 766 684 234 202
2322 12 766 684 234 232
2323 11 131 684 696 13
2324 11 234 684 696 13
2325 11 766 684 696 13
2326 12 131 684 696 694
2327 12 234 684 696 694
2328 12 766 684 696 694
2329 11 131 684 766 762
2330 11 234 684 766 762
2331 11 696 684 766 762
2332 12 131 684 766 763
2333 12 234 684 766 763
2334 12 696 684 766 763
2335 6 695 694 566 567
2336 4 696 694 566 567
2337 5 696 694 566 572
2338 3 13 696 694 566
2339 2 13 696 694 695
2340 1 684 696 694 566
2341 7 708 705 709 558
2342 9 798 705 709 558
2343 8 708 705 709 706
2344 10 798 705 709 706
2345 8 708 705 798 793
2346 10 709 705 798 793
2347 7 708 705 798 899
2348 9 709 705 798 899
2349 8 729 726 733 727
2350 10 807 726 733 727
2351 7 729 726 733 1696
2352 9 807 726 733 1696
2353 8 729 726 807 805
2354 10 733 726 807 805
2355 7 729 726 807 890
2356 9 733 726 807 890
2357 7 765 762 766 684
2358 9 792 762 766 684
2359 8 765 762 766 763
2360 10 792 762 766 763
2361 8 765 762 792 787
2362 10 766 762 792 787
2363 7 765 762 792 1771
2364 9 766 762 792 1771
2365 10 1245 1657 1109 1106
2366 9 1245 1657 1109 1662
2367 8 1660 1657 1109 1106
2368 7 1660 1657 1109 1662
2369 10 1109 1657 1245 1240
2370 9 1109 1657 1245 1778
2371 8 1660 1657 1245 1240
2372 7 1660 1657 1245 1778
2373 10 666 1705 608 602
2374 9 666 1705 608 1696
2375 8 1708 1705 608 602
2376 7 1708 1705 608 1696
2377 10 608 1705 666 664
2378 9 608 1705 666 1771
2379 8 1708 1705 666 664
2380 7 1708 1705 666 1771
2381 8 1722 1719 2002 1996
2382 10 2030 1719 2002 1996
2383 7 1722 1719 2002 2003
2384 9 2030 1719 2002 2003
2385 7 1722 1719 2030 2009
2386 9 2002 1719 2030 2009
2387 8 1722 1719 2030 2028
2388 10 2002 1719 2030 2028
2389 12 792 1771 666 664
2390 11 792 1771 666 1705
2391 12 1791 1771 666 664
2392 11 1791 1771 666 1705
2393 12 1878 1771 666 664
2394 11 1878 1771 666 1705
2395 11 666 1771 792 762
2396 12 666 1771 792 787
2397 11 1791 1771 792 762
2398 12 1791 1771 792 787
2399 11 1878 1771 792 762
2400 12 1878 1771 792 787
2401 11 666 1771 1791 573
2402 11 792 1771 1791 573
2403 11 1878 1771 1791 573
2404 12 666 1771 1791 1789
2405 12 792 1771 1791 1789
2406 12 1878 1771 1791 1789
2407 11 666 1771 1878 1871
2408 11 792 1771 1878 1871
2409 11 1791 1771 1878 1871
2410 12 666 1771 1878 1872
2411 12 792 1771 1878 1872
2412 12 1791 1771 1878 1872
2413 12 1305 1778 1245 1240
2414 11 1305 1778 1245 1657
2415 12 1777 1778 1245 1240
2416 11 1777 1778 1245 1657
2417 12 1881 1778 1245 1240
2418 11 1881 1778 1245 1657
2419 11 1245 1778 1305 1301
2420 12 1245 1778 1305 1302
2421 11 1777 1778 1305 1301
2422 12 1777 1778 1305 1302
2423 11 1881 1778 1305 1301
2424 12 1881 1778 1305 1302
2425 11 1245 1778 1777 1133
2426 12 1245 1778 1777 1772
2427 11 1305 1778 1777 1133
2428 12 1305 1778 1777 1772
2429 11 1881 1778 1777 1133
2430 12 1881 1778 1777 1772
2431 11 1245 1778 1881 1871
2432 11 1305 1778 1881 1871
2433 11 1777 1778 1881 1871
2434 12 1245 1778 1881 1879
2435 12 1305 1778 1881 1879
2436 12 1777 1778 1881 1879
2437 4 1813 1810 1897 1898
2438 1 1662 1813 1810 1897
2439 2 1809 1813 1810 1811
2440 3 1809 1813 1810 1897
2441 4 1847 1844 1918 1919
2442 1 1696 1847 1844 1918
2443 2 1843 1847 1844 1845
2444 3 1843 1847 1844 1918
2445 4 1878 1872 1879 1880
2446 1 1771 1878 1872 1879
2447 2 1871 1878 1872 1873
2448 3 1871 1878 1872 1879
2449 6 1880 1879 1872 1873
2450 4 1881 1879 1872 1873
2451 5 1881 1879 1872 1878
2452 1 1778 1881 1879 1872
2453 3 1871 1881 1879 1872
2454 2 1871 1881 1879 1880
2455 6 1898 1897 1810 1811
2456 4 1902 1897 1810 1811
2457 5 1902 1897 1810 1813
2458 3 1809 1902 1897 1810
2459 2 1809 1902 1897 1898
2460 1 2003 1902 1897 1810
2461 6 1919 1918 1844 1845
2462 4 1923 1918 1844 1845
2463 5 1923 1918 1844 1847
2464 3 1843 1923 1918 1844
2465 2 1843 1923 1918 1919
2466 1 2009 1923 1918 1844
2467 12 1277 1662 1109 1106
2468 11 1277 1662 1109 1657
2469 12 1676 1662 1109 1106
2470 11 1676 1662 1109 1657
2471 12 1813 1662 1109 1106
2472 11 1813 1662 1109 1657
2473 11 1109 1662 1277 1270
2474 12 1109 1662 1277 1271
2475 11 1676 1662 1277 1270
2476 12 1676 1662 1277 1271
2477 11 1813 1662 1277 1270
2478 12 1813 1662 1277 1271
2479 11 1109 1662 1676 1117
2480 11 1277 1662 1676 1117
2481 11 1813 1662 1676 1117
2482 12 1109 1662 1676 1670
2483 12 1277 1662 1676 1670
2484 12 1813 1662 1676 1670
2485 11 1109 1662 1813 1809
2486 11 1277 1662 1813 1809
2487 11 1676 1662 1813 1809
2488 12 1109 1662 1813 1810
2489 12 1277 1662 1813 1810
2490 12 1676 1662 1813 1810
2491 4 1676 1670 1798 1799
2492 2 1117 1676 1670 1671
2493 3 1117 1676 1670 1798
2494 1 1662 1676 1670 1798
2495 4 1712 1706 1768 1769
2496 1 592 1712 1706 1768
2497 2 601 1712 1706 1707
2498 3 601 1712 1706 1768
2499 4 1717 1714 1746 1747
2500 2 1989 1717 1714 1715
2501 3 1989 1717 1714 1746
2502 1 1994 1717 1714 1746
2503 6 1747 1746 1714 1715
2504 4 1751 1746 1714 1715
2505 5 1751 1746 1714 1717
2506 3 1989 1751 1746 1714
2507 2 1989 1751 1746 1747
2508 1 2003 1751 1746 1714
2509 6 1769 1768 1706 1707
2510 4 1770 1768 1706 1707
2511 5 1770 1768 1706 1712
2512 3 601 1770 1768 1706
2513 2 601 1770 1768 1769
2514 1 667 1770 1768 1706
2515 12 1338 1788 1235 1233
2516 11 1338 1788 1235 1697
2517 12 1800 1788 1235 1233
2518 11 1800 1788 1235 1697
2519 12 1870 1788 1235 1233
2520 11 1870 1788 1235 1697
2521 11 1235 1788 1338 1306
2522 12 1235 1788 1338 1336
2523 11 1800 1788 1338 1306
2524 12 1800 1788 1338 1336
2525 11 1870 1788 1338 1306
2526 12 1870 1788 1338 1336
2527 11 1235 1788 1800 1117
2528 11 1338 1788 1800 1117
2529 11 1870 1788 1800 1117
2530 12 1235 1788 1800 1798
2531 12 1338 1788 1800 1798
2532 12 1870 1788 1800 1798
2533 11 1235 1788 1870 1866
2534 11 1338 1788 1870 1866
2535 11 1800 1788 1870 1866
2536 12 1235 1788 1870 1867
2537 12 1338 1788 1870 1867
2538 12 1800 1788 1870 1867
2539 6 1799 1798 1670 1671
2540 4 1800 1798 1670 1671
2541 5 1800 1798 1670 1676
2542 3 1117 1800 1798 1670
2543 2 1117 1800 1798 1799
2544 1 1788 1800 1798 1670
2545 7 1812 1809 1813 1662
2546 9 1902 1809 1813 1662
2547 8 1812 1809 1813 1810
2548 10 1902 1809 1813 1810
2549 8 1812 1809 1902 1897
2550 10 1813 1809 1902 1897
2551 7 1812 1809 1902 2003
2552 9 1813 1809 1902 2003
2553 7 1833 1830 1837 592
2554 9 1911 1830 1837 592
2555 8 1833 1830 1837 1831
2556 10 1911 1830 1837 1831
2557 8 1833 1830 1911 1909
2558 10 1837 1830 1911 1909
2559 7 1833 1830 1911 1994
2560 9 1837 1830 1911 1994
2561 7 1869 1866 1870 1788
2562 9 1896 1866 1870 1788
2563 8 1869 1866 1870 1867
2564 10 1896 1866 1870 1867
2565 7 1869 1866 1896 667
2566 9 1870 1866 1896 667
2567 8 1869 1866 1896 1891
2568 10 1870 1866 1896 1891
2569 4 557 554 688 689
2570 2 1 557 554 555
2571 3 1 557 554 688
2572 1 6 557 554 688
2573 4 591 588 675 676
2574 1 592 591 588 675
2575 2 1691 591 588 589
2576 3 1691 591 588 675
2577 12 743 592 591 588
2578 11 743 592 591 1691
2579 12 1712 592 591 588
2580 11 1712 592 591 1691
2581 12 1837 592 591 588
2582 11 1837 592 591 1691
2583 11 591 592 743 739
2584 11 1712 592 743 739
2585 11 1837 592 743 739
2586 12 591 592 743 740
2587 12 1712 592 743 740
2588 12 1837 592 743 740
2589 11 591 592 1712 601
2590 11 743 592 1712 601
2591 11 1837 592 1712 601
2592 12 591 592 1712 1706
2593 12 743 592 1712 1706
2594 12 1837 592 1712 1706
2595 11 591 592 1837 1830
2596 11 743 592 1837 1830
2597 11 1712 592 1837 1830
2598 12 591 592 1837 1831
2599 12 743 592 1837 1831
2600 12 1712 592 1837 1831
2601 4 628 625 651 652
2602 2 900 628 625 626
2603 3 900 628 625 651
2604 1 905 628 625 651
2605 6 652 651 625 626
2606 4 656 651 625 626
2607 5 656 651 625 628
2608 3 900 656 651 625
2609 2 900 656 651 652
2610 1 914 656 651 625
2611 12 783 663 680 675
2612 12 1766 663 680 675
2613 12 1865 663 680 675
2614 11 783 663 680 1691
2615 11 1766 663 680 1691
2616 11 1865 663 680 1691
2617 11 680 663 783 749
2618 11 1766 663 783 749
2619 11 1865 663 783 749
2620 12 680 663 783 778
2621 12 1766 663 783 778
2622 12 1865 663 783 778
2623 11 680 663 1766 559
2624 11 783 663 1766 559
2625 11 1865 663 1766 559
2626 12 680 663 1766 1761
2627 12 783 663 1766 1761
2628 12 1865 663 1766 1761
2629 11 680 663 1865 1858
2630 11 783 663 1865 1858
2631 11 1766 663 1865 1858
2632 12 680 663 1865 1859
2633 12 783 663 1865 1859
2634 12 1766 663 1865 1859
2635 6 676 675 588 589
2636 4 680 675 588 589
2637 5 680 675 588 591
2638 1 663 680 675 588
2639 3 1691 680 675 588
2640 2 1691 680 675 676
2641 6 689 688 554 555
2642 4 693 688 554 555
2643 5 693 688 554 557
2644 3 1 693 688 554
2645 2 1 693 688 689
2646 1 122 693 688 554
2647 7 721 718 725 6
2648 9 822 718 725 6
2649 8 721 718 725 719
2650 10 822 718 725 719
2651 8 721 718 822 820
2652 10 725 718 822 820
2653 7 721 718 822 914
2654 9 725 718 822 914
2655 7 742 739 743 592
2656 9 819 739 743 592
2657 8 742 739 743 740
2658 10 819 739 743 740
2659 8 742 739 819 814
2660 10 743 739 819 814
2661 7 742 739 819 905
2662 9 743 739 819 905
2663 7 752 749 753 122
2664 9 783 749 753 122
2665 8 752 749 753 750
2666 10 783 749 753 750
2667 7 752 749 783 663
2668 9 753 749 783 663
2669 8 752 749 783 778
2670 10 753 749 783 778
2671 9 144 565 20 6
2672 10 144 565 20 14
2673 7 568 565 20 6
2674 8 568 565 20 14
2675 9 20 565 144 132
2676 10 20 565 144 142
2677 7 568 565 144 132
2678 8 568 565 144 142
2679 8 590 587 1695 1692
2680 10 1784 587 1695 1692
2681 7 590 587 1695 1696
2682 9 1784 587 1695 1696
2683 7 590 587 1784 1767
2684 9 1695 587 1784 1767
2685 8 590 587 1784 1779
2686 10 1695 587 1784 1779
2687 8 633 630 913 907
2688 10 917 630 913 907
2689 7 633 630 913 914
2690 9 917 630 913 914
2691 7 633 630 917 890
2692 9 913 630 917 890
2693 8 633 630 917 915
2694 10 913 630 917 915
2695 4 725 719 820 821
2696 1 6 725 719 820
2697 2 718 725 719 720
2698 3 718 725 719 820
2699 4 733 727 805 806
2700 2 726 733 727 728
2701 3 726 733 727 805
2702 1 1696 733 727 805
2703 4 761 755 784 785
2704 2 754 761 755 756
2705 3 754 761 755 784
2706 1 1767 761 755 784
2707 6 785 784 755 756
2708 4 786 784 755 756
2709 5 786 784 755 761
2710 1 132 786 784 755
2711 3 754 786 784 755
2712 2 754 786 784 785
2713 6 806 805 727 728
2714 4 807 805 727 728
2715 5 807 805 727 733
2716 3 726 807 805 727
2717 2 726 807 805 806
2718 1 890 807 805 727
2719 6 821 820 719 720
2720 4 822 820 719 720
2721 5 822 820 719 725
2722 3 718 822 820 719
2723 2 718 822 820 821
2724 1 914 822 820 719
2725 4 1661 1658 1792 1793
2726 2 1105 1661 1658 1659
2727 3 1105 1661 1658 1792
2728 1 1110 1661 1658 1792
2729 4 1695 1692 1779 1780
2730 2 587 1695 1692 1693
2731 3 587 1695 1692 1779
2732 1 1696 1695 1692 1779
2733 12 733 1696 608 602
2734 11 733 1696 608 1705
2735 12 1695 1696 608 602
2736 11 1695 1696 608 1705
2737 12 1847 1696 608 602
2738 11 1847 1696 608 1705
2739 11 608 1696 733 726
2740 12 608 1696 733 727
2741 11 1695 1696 733 726
2742 12 1695 1696 733 727
2743 11 1847 1696 733 726
2744 12 1847 1696 733 727
2745 11 608 1696 1695 587
2746 12 608 1696 1695 1692
2747 11 733 1696 1695 587
2748 12 733 1696 1695 1692
2749 11 1847 1696 1695 587
2750 12 1847 1696 1695 1692
2751 11 608 1696 1847 1843
2752 11 733 1696 1847 1843
2753 11 1695 1696 1847 1843
2754 12 608 1696 1847 1844
2755 12 733 1696 1847 1844
2756 12 1695 1696 1847 1844
2757 4 1732 1729 1755 1756
2758 2 2004 1732 1729 1730
2759 3 2004 1732 1729 1755
2760 1 2009 1732 1729 1755
2761 6 1756 1755 1729 1730
2762 4 1760 1755 1729 1730
2763 5 1760 1755 1729 1732
2764 3 2004 1760 1755 1729
2765 2 2004 1760 1755 1756
2766 1 2018 1760 1755 1729
2767 12 761 1767 662 657
2768 11 761 1767 662 1663
2769 12 1784 1767 662 657
2770 11 1784 1767 662 1663
2771 12 1887 1767 662 657
2772 11 1887 1767 662 1663
2773 11 662 1767 761 754
2774 12 662 1767 761 755
2775 11 1784 1767 761 754
2776 12 1784 1767 761 755
2777 11 1887 1767 761 754
2778 12 1887 1767 761 755
2779 11 662 1767 1784 587
2780 11 761 1767 1784 587
2781 11 1887 1767 1784 587
2782 12 662 1767 1784 1779
2783 12 761 1767 1784 1779
2784 12 1887 1767 1784 1779
2785 11 662 1767 1887 1853
2786 11 761 1767 1887 1853
2787 11 1784 1767 1887 1853
2788 12 662 1767 1887 1882
2789 12 761 1767 1887 1882
2790 12 1784 1767 1887 1882
2791 6 1780 1779 1692 1693
2792 4 1784 1779 1692 1693
2793 5 1784 1779 1692 1695
2794 3 587 1784 1779 1692
2795 2 587 1784 1779 1780
2796 1 1767 1784 1779 1692
2797 6 1793 1792 1658 1659
2798 4 1797 1792 1658 1659
2799 5 1797 1792 1658 1661
2800 3 1105 1797 1792 1658
2801 2 1105 1797 1792 1793
2802 1 1226 1797 1792 1658
2803 7 1825 1822 1829 1110
2804 9 1926 1822 1829 1110
2805 8 1825 1822 1829 1823
2806 10 1926 1822 1829 1823
2807 8 1825 1822 1926 1924
2808 10 1829 1822 1926 1924
2809 7 1825 1822 1926 2018
2810 9 1829 1822 1926 2018
2811 7 1846 1843 1847 1696
2812 9 1923 1843 1847 1696
2813 8 1846 1843 1847 1844
2814 10 1923 1843 1847 1844
2815 8 1846 1843 1923 1918
2816 10 1847 1843 1923 1918
2817 7 1846 1843 1923 2009
2818 9 1847 1843 1923 2009
2819 7 1856 1853 1857 1226
2820 9 1887 1853 1857 1226
2821 8 1856 1853 1857 1854
2822 10 1887 1853 1857 1854
2823 7 1856 1853 1887 1767
2824 9 1857 1853 1887 1767
2825 8 1856 1853 1887 1882
2826 10 1857 1853 1887 1882
2827 9 1248 1669 1124 1110
2828 10 1248 1669 1124 1118
2829 7 1672 1669 1124 1110
2830 8 1672 1669 1124 1118
2831 9 1124 1669 1248 1236
2832 10 1124 1669 1248 1246
2833 7 1672 1669 1248 1236
2834 8 1672 1669 1248 1246
2835 10 680 1691 591 588
2836 9 680 1691 591 592
2837 8 1694 1691 591 588
2838 7 1694 1691 591 592
2839 9 591 1691 680 663
2840 10 591 1691 680 675
2841 7 1694 1691 680 663
2842 8 1694 1691 680 675
2843 8 1737 1734 2017 2011
2844 10 2021 1734 2017 2011
2845 7 1737 1734 2017 2018
2846 9 2021 1734 2017 2018
2847 7 1737 1734 2021 1994
2848 9 2017 1734 2021 1994
2849 8 1737 1734 2021 2019
2850 10 2017 1734 2021 2019
2851 4 1829 1823 1924 1925
2852 1 1110 1829 1823 1924
2853 2 1822 1829 1823 1824
2854 3 1822 1829 1823 1924
2855 4 1837 1831 1909 1910
2856 1 592 1837 1831 1909
2857 2 1830 1837 1831 1832
2858 3 1830 1837 1831 1909
2859 4 1865 1859 1888 1889
2860 1 663 1865 1859 1888
2861 2 1858 1865 1859 1860
2862 3 1858 1865 1859 1888
2863 6 1889 1888 1859 1860
2864 4 1890 1888 1859 1860
2865 5 1890 1888 1859 1865
2866 1 1236 1890 1888 1859
2867 3 1858 1890 1888 1859
2868 2 1858 1890 1888 1889
2869 6 1910 1909 1831 1832
2870 4 1911 1909 1831 1832
2871 5 1911 1909 1831 1837
2872 3 1830 1911 1909 1831
2873 2 1830 1911 1909 1910
2874 1 1994 1911 1909 1831
2875 6 1925 1924 1823 1824
2876 4 1926 1924 1823 1824
2877 5 1926 1924 1823 1829
2878 3 1822 1926 1924 1823
2879 2 1822 1926 1924 1925
2880 1 2018 1926 1924 1823
2881 4 304 298 409 410
2882 1 288 304 298 409
2883 2 1401 304 298 299
2884 3 1401 304 298 409
2885 4 309 306 392 393
2886 1 310 309 306 392
2887 2 857 309 306 307
2888 3 857 309 306 392
2889 4 346 340 372 373
2890 2 63 346 340 341
2891 3 63 346 340 372
2892 1 347 346 340 372
2893 6 373 372 340 341
2894 4 374 372 340 341
2895 5 374 372 340 346
2896 3 63 374 372 340
2897 2 63 374 372 373
2898 1 353 374 372 340
2899 6 393 392 306 307
2900 4 397 392 306 307
2901 5 397 392 306 309
2902 1 398 397 392 306
2903 3 857 397 392 306
2904 2 857 397 392 393
2905 6 410 409 298 299
2906 4 411 409 298 299
2907 5 411 409 298 304
2908 1 391 411 409 298
2909 3 1401 411 409 298
2910 2 1401 411 409 410
2911 7 437 434 441 288
2912 9 552 434 441 288
2913 8 437 434 441 435
2914 10 552 434 441 435
2915 7 437 434 552 353
2916 9 441 434 552 353
2917 8 437 434 552 550
2918 10 441 434 552 550
2919 7 461 458 462 310
2920 9 537 458 462 310
2921 8 461 458 462 459
2922 10 537 458 462 459
2923 7 461 458 537 347
2924 9 462 458 537 347
2925 8 461 458 537 532
2926 10 462 458 537 532
2927 7 494 491 498 391
2928 9 501 491 498 391
2929 8 494 491 498 492
2930 10 501 491 498 492
2931 7 494 491 501 398
2932 9 498 491 501 398
2933 8 494 491 501 499
2934 10 498 491 501 499
2935 7 300 297 1408 1392
2936 9 1515 297 1408 1392
2937 8 300 297 1408 1402
2938 10 1515 297 1408 1402
2939 7 300 297 1515 1495
2940 9 1408 297 1515 1495
2941 8 300 297 1515 1513
2942 10 1408 297 1515 1513
2943 12 462 310 309 306
2944 11 462 310 309 857
2945 12 876 310 309 306
2946 11 876 310 309 857
2947 12 1024 310 309 306
2948 11 1024 310 309 857
2949 11 309 310 462 458
2950 11 876 310 462 458
2951 11 1024 310 462 458
2952 12 309 310 462 459
2953 12 876 310 462 459
2954 12 1024 310 462 459
2955 11 309 310 876 317
2956 11 462 310 876 317
2957 11 1024 310 876 317
2958 12 309 310 876 870
2959 12 462 310 876 870
2960 12 1024 310 876 870
2961 11 309 310 1024 1020
2962 11 462 310 1024 1020
2963 11 876 310 1024 1020
2964 12 309 310 1024 1021
2965 12 462 310 1024 1021
2966 12 876 310 1024 1021
2967 7 320 317 876 310
2968 9 959 317 876 310
2969 8 320 317 876 870
2970 10 959 317 876 870
2971 7 320 317 959 408
2972 9 876 317 959 408
2973 8 320 317 959 957
2974 10 876 317 959 957
2975 10 95 333 61 58
2976 9 95 333 61 338
2977 8 336 333 61 58
2978 7 336 333 61 338
2979 10 61 333 95 90
2980 9 61 333 95 347
2981 8 336 333 95 90
2982 7 336 333 95 347
2983 12 246 347 95 90
2984 11 246 347 95 333
2985 12 346 347 95 90
2986 11 346 347 95 333
2987 12 537 347 95 90
2988 11 537 347 95 333
2989 11 95 347 246 153
2990 12 95 347 246 241
2991 11 346 347 246 153
2992 12 346 347 246 241
2993 11 537 347 246 153
2994 12 537 347 246 241
2995 11 95 347 346 63
2996 12 95 347 346 340
2997 11 246 347 346 63
2998 12 246 347 346 340
2999 11 537 347 346 63
3000 12 537 347 346 340
3001 11 95 347 537 458
3002 11 246 347 537 458
3003 11 346 347 537 458
3004 12 95 347 537 532
3005 12 246 347 537 532
3006 12 346 347 537 532
3007 4 428 422 547 548
3008 2 421 428 422 423
3009 3 421 428 422 547
3010 1 1392 428 422 547
3011 4 462 459 532 533
3012 1 310 462 459 532
3013 2 458 462 459 460
3014 3 458 462 459 532
3015 4 490 487 511 512
3016 1 408 490 487 511
3017 2 486 490 487 488
3018 3 486 490 487 511
3019 6 512 511 487 488
3020 4 516 511 487 488
3021 5 516 511 487 490
3022 3 486 516 511 487
3023 2 486 516 511 512
3024 1 1495 516 511 487
3025 6 533 532 459 460
3026 4 537 532 459 460
3027 5 537 532 459 462
3028 1 347 537 532 459
3029 3 458 537 532 459
3030 2 458 537 532 533
3031 6 548 547 422 423
3032 4 549 547 422 423
3033 5 549 547 422 428
3034 1 338 549 547 422
3035 3 421 549 547 422
3036 2 421 549 547 548
3037 4 1408 1402 1513 1514
3038 2 297 1408 1402 1403
3039 3 297 1408 1402 1513
3040 1 1392 1408 1402 1513
3041 4 1413 1410 1496 1497
3042 1 1414 1413 1410 1496
3043 2 1961 1413 1410 1411
3044 3 1961 1413 1410 1496
3045 4 1450 1444 1476 1477
3046 2 1167 1450 1444 1445
3047 3 1167 1450 1444 1476
3048 1 1451 1450 1444 1476
3049 6 1477 1476 1444 1445
3050 4 1478 1476 1444 1445
3051 5 1478 1476 1444 1450
3052 3 1167 1478 1476 1444
3053 2 1167 1478 1476 1477
3054 1 1457 1478 1476 1444
3055 6 1497 1496 1410 1411
3056 4 1501 1496 1410 1411
3057 5 1501 1496 1410 1413
3058 1 1502 1501 1496 1410
3059 3 1961 1501 1496 1410
3060 2 1961 1501 1496 1497
3061 6 1514 1513 1402 1403
3062 4 1515 1513 1402 1403
3063 5 1515 1513 1402 1408
3064 3 297 1515 1513 1402
3065 2 297 1515 1513 1514
3066 1 1495 1515 1513 1402
3067 7 1541 1538 1545 1392
3068 9 1656 1538 1545 1392
3069 8 1541 1538 1545 1539
3070 10 1656 1538 1545 1539
3071 7 1541 1538 1656 1457
3072 9 1545 1538 1656 1457
3073 8 1541 1538 1656 1654
3074 10 1545 1538 1656 1654
3075 7 1565 1562 1566 1414
3076 9 1641 1562 1566 1414
3077 8 1565 1562 1566 1563
3078 10 1641 1562 1566 1563
3079 7 1565 1562 1641 1451
3080 9 1566 1562 1641 1451
3081 8 1565 1562 1641 1636
3082 10 1566 1562 1641 1636
3083 7 1598 1595 1602 1495
3084 9 1605 1595 1602 1495
3085 8 1598 1595 1602 1596
3086 10 1605 1595 1602 1596
3087 7 1598 1595 1605 1502
3088 9 1602 1595 1605 1502
3089 8 1598 1595 1605 1603
3090 10 1602 1595 1605 1603
3091 9 411 1401 304 288
3092 10 411 1401 304 298
3093 7 1404 1401 304 288
3094 8 1404 1401 304 298
3095 9 304 1401 411 391
3096 10 304 1401 411 409
3097 7 1404 1401 411 391
3098 8 1404 1401 411 409
3099 12 1566 1414 1413 1410
3100 11 1566 1414 1413 1961
3101 12 1980 1414 1413 1410
3102 11 1980 1414 1413 1961
3103 12 2128 1414 1413 1410
3104 11 2128 1414 1413 1961
3105 11 1413 1414 1566 1562
3106 11 1980 1414 1566 1562
3107 11 2128 1414 1566 1562
3108 12 1413 1414 1566 1563
3109 12 1980 1414 1566 1563
3110 12 2128 1414 1566 1563
3111 11 1413 1414 1980 1421
3112 11 1566 1414 1980 1421
3113 11 2128 1414 1980 1421
3114 12 1413 1414 1980 1974
3115 12 1566 1414 1980 1974
3116 12 2128 1414 1980 1974
3117 11 1413 1414 2128 2124
3118 11 1566 1414 2128 2124
3119 11 1980 1414 2128 2124
3120 12 1413 1414 2128 2125
3121 12 1566 1414 2128 2125
3122 12 1980 1414 2128 2125
3123 7 1424 1421 1980 1414
3124 9 2063 1421 1980 1414
3125 8 1424 1421 1980 1974
3126 10 2063 1421 1980 1974
3127 7 1424 1421 2063 1512
3128 9 1980 1421 2063 1512
3129 8 1424 1421 2063 2061
3130 10 1980 1421 2063 2061
3131 10 1199 1437 1165 1162
3132 9 1199 1437 1165 1442
3133 8 1440 1437 1165 1162
3134 7 1440 1437 1165 1442
3135 10 1165 1437 1199 1194
3136 9 1165 1437 1199 1451
3137 8 1440 1437 1199 1194
3138 7 1440 1437 1199 1451
3139 12 1350 1451 1199 1194
3140 11 1350 1451 1199 1437
3141 12 1450 1451 1199 1194
3142 11 1450 1451 1199 1437
3143 12 1641 1451 1199 1194
3144 11 1641 1451 1199 1437
3145 11 1199 1451 1350 1257
3146 12 1199 1451 1350 1345
3147 11 1450 1451 1350 1257
3148 12 1450 1451 1350 1345
3149 11 1641 1451 1350 1257
3150 12 1641 1451 1350 1345
3151 11 1199 1451 1450 1167
3152 12 1199 1451 1450 1444
3153 11 1350 1451 1450 1167
3154 12 1350 1451 1450 1444
3155 11 1641 1451 1450 1167
3156 12 1641 1451 1450 1444
3157 11 1199 1451 1641 1562
3158 11 1350 1451 1641 1562
3159 11 1450 1451 1641 1562
3160 12 1199 1451 1641 1636
3161 12 1350 1451 1641 1636
3162 12 1450 1451 1641 1636
3163 4 1532 1526 1651 1652
3164 1 288 1532 1526 1651
3165 2 1525 1532 1526 1527
3166 3 1525 1532 1526 1651
3167 4 1566 1563 1636 1637
3168 1 1414 1566 1563 1636
3169 2 1562 1566 1563 1564
3170 3 1562 1566 1563 1636
3171 4 1594 1591 1615 1616
3172 1 1512 1594 1591 1615
3173 2 1590 1594 1591 1592
3174 3 1590 1594 1591 1615
3175 6 1616 1615 1591 1592
3176 4 1620 1615 1591 1592
3177 5 1620 1615 1591 1594
3178 1 391 1620 1615 1591
3179 3 1590 1620 1615 1591
3180 2 1590 1620 1615 1616
3181 6 1637 1636 1563 1564
3182 4 1641 1636 1563 1564
3183 5 1641 1636 1563 1566
3184 1 1451 1641 1636 1563
3185 3 1562 1641 1636 1563
3186 2 1562 1641 1636 1637
3187 6 1652 1651 1526 1527
3188 4 1653 1651 1526 1527
3189 5 1653 1651 1526 1532
3190 1 1442 1653 1651 1526
3191 3 1525 1653 1651 1526
3192 2 1525 1653 1651 1652
3193 7 286 283 1391 288
3194 9 1490 283 1391 288
3195 8 286 283 1391 1388
3196 10 1490 283 1391 1388
3197 7 286 283 1490 387
3198 9 1391 283 1490 387
3199 8 286 283 1490 1485
3200 10 1391 283 1490 1485
3201 12 441 288 304 298
3202 12 1391 288 304 298
3203 12 1532 288 304 298
3204 11 441 288 304 1401
3205 11 1391 288 304 1401
3206 11 1532 288 304 1401
3207 11 304 288 441 434
3208 11 1391 288 441 434
3209 11 1532 288 441 434
3210 12 304 288 441 435
3211 12 1391 288 441 435
3212 12 1532 288 441 435
3213 11 304 288 1391 283
3214 11 441 288 1391 283
3215 11 1532 288 1391 283
3216 12 304 288 1391 1388
3217 12 441 288 1391 1388
3218 12 1532 288 1391 1388
3219 11 304 288 1532 1525
3220 11 441 288 1532 1525
3221 11 1391 288 1532 1525
3222 12 304 288 1532 1526
3223 12 441 288 1532 1526
3224 12 1391 288 1532 1526
3225 8 308 305 861 858
3226 10 949 305 861 858
3227 7 308 305 861 862
3228 9 949 305 861 862
3229 8 308 305 949 944
3230 10 861 305 949 944
3231 7 308 305 949 950
3232 9 861 305 949 950
3233 10 104 348 76 73
3234 9 104 348 76 353
3235 8 351 348 76 73
3236 7 351 348 76 353
3237 10 76 348 104 99
3238 9 76 348 104 362
3239 8 351 348 104 99
3240 7 351 348 104 362
3241 12 267 353 76 73
3242 11 267 353 76 348
3243 12 374 353 76 73
3244 11 374 353 76 348
3245 12 552 353 76 73
3246 11 552 353 76 348
3247 11 76 353 267 187
3248 12 76 353 267 262
3249 11 374 353 267 187
3250 12 374 353 267 262
3251 11 552 353 267 187
3252 12 552 353 267 262
3253 11 76 353 374 63
3254 11 267 353 374 63
3255 11 552 353 374 63
3256 12 76 353 374 372
3257 12 267 353 374 372
3258 12 552 353 374 372
3259 11 76 353 552 434
3260 11 267 353 552 434
3261 11 374 353 552 434
3262 12 76 353 552 550
3263 12 267 353 552 550
3264 12 374 353 552 550
3265 4 441 435 550 551
3266 1 288 441 435 550
3267 2 434 441 435 436
3268 3 434 441 435 550
3269 4 472 469 523 524
3270 2 468 472 469 470
3271 3 468 472 469 523
3272 1 862 472 469 523
3273 4 477 474 502 503
3274 2 473 477 474 475
3275 3 473 477 474 502
3276 1 950 477 474 502
3277 6 503 502 474 475
3278 4 507 502 474 475
3279 5 507 502 474 477
3280 1 387 507 502 474
3281 3 473 507 502 474
3282 2 473 507 502 503
3283 6 524 523 469 470
3284 4 528 523 469 470
3285 5 528 523 469 472
3286 1 362 528 523 469
3287 3 468 528 523 469
3288 2 468 528 523 524
3289 6 551 550 435 436
3290 4 552 550 435 436
3291 5 552 550 435 441
3292 1 353 552 550 435
3293 3 434 552 550 435
3294 2 434 552 550 551
3295 4 287 284 381 382
3296 2 1387 287 284 285
3297 3 1387 287 284 381
3298 1 1392 287 284 381
3299 4 324 318 405 406
3300 1 862 324 318 405
3301 2 869 324 318 319
3302 3 869 324 318 405
3303 12 255 338 61 58
3304 11 255 338 61 333
3305 12 365 338 61 58
3306 11 365 338 61 333
3307 12 549 338 61 58
3308 11 549 338 61 333
3309 11 61 338 255 174
3310 12 61 338 255 253
3311 11 365 338 255 174
3312 12 365 338 255 253
3313 11 549 338 255 174
3314 12 549 338 255 253
3315 11 61 338 365 78
3316 11 255 338 365 78
3317 11 549 338 365 78
3318 12 61 338 365 363
3319 12 255 338 365 363
3320 12 549 338 365 363
3321 11 61 338 549 421
3322 11 255 338 549 421
3323 11 365 338 549 421
3324 12 61 338 549 547
3325 12 255 338 549 547
3326 12 365 338 549 547
3327 4 361 355 363 364
3328 2 78 361 355 356
3329 3 78 361 355 363
3330 1 362 361 355 363
3331 12 270 362 104 99
3332 11 270 362 104 348
3333 12 361 362 104 99
3334 11 361 362 104 348
3335 12 528 362 104 99
3336 11 528 362 104 348
3337 11 104 362 270 166
3338 12 104 362 270 268
3339 11 361 362 270 166
3340 12 361 362 270 268
3341 11 528 362 270 166
3342 12 528 362 270 268
3343 11 104 362 361 78
3344 12 104 362 361 355
3345 11 270 362 361 78
3346 12 270 362 361 355
3347 11 528 362 361 78
3348 12 528 362 361 355
3349 11 104 362 528 468
3350 11 270 362 528 468
3351 11 361 362 528 468
3352 12 104 362 528 523
3353 12 270 362 528 523
3354 12 361 362 528 523
3355 6 364 363 355 356
3356 4 365 363 355 356
3357 5 365 363 355 361
3358 3 78 365 363 355
3359 2 78 365 363 364
3360 1 338 365 363 355
3361 6 382 381 284 285
3362 4 386 381 284 285
3363 5 386 381 284 287
3364 3 1387 386 381 284
3365 2 1387 386 381 382
3366 1 1491 386 381 284
3367 6 406 405 318 319
3368 4 407 405 318 319
3369 5 407 405 318 324
3370 3 869 407 405 318
3371 2 869 407 405 406
3372 1 960 407 405 318
3373 8 424 421 428 422
3374 10 549 421 428 422
3375 7 424 421 428 1392
3376 9 549 421 428 1392
3377 7 424 421 549 338
3378 9 428 421 549 338
3379 8 424 421 549 547
3380 10 428 421 549 547
3381 8 471 468 472 469
3382 10 528 468 472 469
3383 7 471 468 472 862
3384 9 528 468 472 862
3385 7 471 468 528 362
3386 9 472 468 528 362
3387 8 471 468 528 523
3388 10 472 468 528 523
3389 8 481 478 485 479
3390 10 510 478 485 479
3391 7 481 478 485 1491
3392 9 510 478 485 1491
3393 8 481 478 510 508
3394 10 485 478 510 508
3395 7 481 478 510 960
3396 9 485 478 510 960
3397 10 386 1387 287 284
3398 9 386 1387 287 1392
3399 8 1390 1387 287 284
3400 7 1390 1387 287 1392
3401 10 287 1387 386 381
3402 9 287 1387 386 1491
3403 8 1390 1387 386 381
3404 7 1390 1387 386 1491
3405 12 428 1392 287 284
3406 11 428 1392 287 1387
3407 12 1408 1392 287 284
3408 11 1408 1392 287 1387
3409 12 1545 1392 287 284
3410 11 1545 1392 287 1387
3411 11 287 1392 428 421
3412 12 287 1392 428 422
3413 11 1408 1392 428 421
3414 12 1408 1392 428 422
3415 11 1545 1392 428 421
3416 12 1545 1392 428 422
3417 11 287 1392 1408 297
3418 11 428 1392 1408 297
3419 11 1545 1392 1408 297
3420 12 287 1392 1408 1402
3421 12 428 1392 1408 1402
3422 12 1545 1392 1408 1402
3423 11 287 1392 1545 1538
3424 11 428 1392 1545 1538
3425 11 1408 1392 1545 1538
3426 12 287 1392 1545 1539
3427 12 428 1392 1545 1539
3428 12 1408 1392 1545 1539
3429 8 1412 1409 1965 1962
3430 10 2053 1409 1965 1962
3431 7 1412 1409 1965 1966
3432 9 2053 1409 1965 1966
3433 8 1412 1409 2053 2048
3434 10 1965 1409 2053 2048
3435 7 1412 1409 2053 2054
3436 9 1965 1409 2053 2054
3437 10 1208 1452 1180 1177
3438 9 1208 1452 1180 1457
3439 8 1455 1452 1180 1177
3440 7 1455 1452 1180 1457
3441 10 1180 1452 1208 1203
3442 9 1180 1452 1208 1466
3443 8 1455 1452 1208 1203
3444 7 1455 1452 1208 1466
3445 12 1371 1457 1180 1177
3446 11 1371 1457 1180 1452
3447 12 1478 1457 1180 1177
3448 11 1478 1457 1180 1452
3449 12 1656 1457 1180 1177
3450 11 1656 1457 1180 1452
3451 11 1180 1457 1371 1291
3452 12 1180 1457 1371 1366
3453 11 1478 1457 1371 1291
3454 12 1478 1457 1371 1366
3455 11 1656 1457 1371 1291
3456 12 1656 1457 1371 1366
3457 11 1180 1457 1478 1167
3458 11 1371 1457 1478 1167
3459 11 1656 1457 1478 1167
3460 12 1180 1457 1478 1476
3461 12 1371 1457 1478 1476
3462 12 1656 1457 1478 1476
3463 11 1180 1457 1656 1538
3464 11 1371 1457 1656 1538
3465 11 1478 1457 1656 1538
3466 12 1180 1457 1656 1654
3467 12 1371 1457 1656 1654
3468 12 1478 1457 1656 1654
3469 4 1545 1539 1654 1655
3470 1 1392 1545 1539 1654
3471 2 1538 1545 1539 1540
3472 3 1538 1545 1539 1654
3473 4 1576 1573 1627 1628
3474 2 1572 1576 1573 1574
3475 3 1572 1576 1573 1627
3476 1 1966 1576 1573 1627
3477 4 1581 1578 1606 1607
3478 2 1577 1581 1578 1579
3479 3 1577 1581 1578 1606
3480 1 2054 1581 1578 1606
3481 6 1607 1606 1578 1579
3482 4 1611 1606 1578 1579
3483 5 1611 1606 1578 1581
3484 1 1491 1611 1606 1578
3485 3 1577 1611 1606 1578
3486 2 1577 1611 1606 1607
3487 6 1628 1627 1573 1574
3488 4 1632 1627 1573 1574
3489 5 1632 1627 1573 1576
3490 1 1466 1632 1627 1573
3491 3 1572 1632 1627 1573
3492 2 1572 1632 1627 1628
3493 6 1655 1654 1539 1540
3494 4 1656 1654 1539 1540
3495 5 1656 1654 1539 1545
3496 1 1457 1656 1654 1539
3497 3 1538 1656 1654 1539
3498 2 1538 1656 1654 1655
3499 4 1391 1388 1485 1486
3500 2 283 1391 1388 1389
3501 3 283 1391 1388 1485
3502 1 288 1391 1388 1485
3503 4 1428 1422 1509 1510
3504 1 1966 1428 1422 1509
3505 2 1973 1428 1422 1423
3506 3 1973 1428 1422 1509
3507 12 1359 1442 1165 1162
3508 11 1359 1442 1165 1437
3509 12 1469 1442 1165 1162
3510 11 1469 1442 1165 1437
3511 12 1653 1442 1165 1162
3512 11 1653 1442 1165 1437
3513 11 1165 1442 1359 1278
3514 12 1165 1442 1359 1357
3515 11 1469 1442 1359 1278
3516 12 1469 1442 1359 1357
3517 11 1653 1442 1359 1278
3518 12 1653 1442 1359 1357
3519 11 1165 1442 1469 1182
3520 11 1359 1442 1469 1182
3521 11 1653 1442 1469 1182
3522 12 1165 1442 1469 1467
3523 12 1359 1442 1469 1467
3524 12 1653 1442 1469 1467
3525 11 1165 1442 1653 1525
3526 11 1359 1442 1653 1525
3527 11 1469 1442 1653 1525
3528 12 1165 1442 1653 1651
3529 12 1359 1442 1653 1651
3530 12 1469 1442 1653 1651
3531 4 1465 1459 1467 1468
3532 2 1182 1465 1459 1460
3533 3 1182 1465 1459 1467
3534 1 1466 1465 1459 1467
3535 12 1374 1466 1208 1203
3536 11 1374 1466 1208 1452
3537 12 1465 1466 1208 1203
3538 11 1465 1466 1208 1452
3539 12 1632 1466 1208 1203
3540 11 1632 1466 1208 1452
3541 11 1208 1466 1374 1270
3542 12 1208 1466 1374 1372
3543 11 1465 1466 1374 1270
3544 12 1465 1466 1374 1372
3545 11 1632 1466 1374 1270
3546 12 1632 1466 1374 1372
3547 11 1208 1466 1465 1182
3548 12 1208 1466 1465 1459
3549 11 1374 1466 1465 1182
3550 12 1374 1466 1465 1459
3551 11 1632 1466 1465 1182
3552 12 1632 1466 1465 1459
3553 11 1208 1466 1632 1572
3554 11 1374 1466 1632 1572
3555 11 1465 1466 1632 1572
3556 12 1208 1466 1632 1627
3557 12 1374 1466 1632 1627
3558 12 1465 1466 1632 1627
3559 6 1468 1467 1459 1460
3560 4 1469 1467 1459 1460
3561 5 1469 1467 1459 1465
3562 3 1182 1469 1467 1459
3563 2 1182 1469 1467 1468
3564 1 1442 1469 1467 1459
3565 6 1486 1485 1388 1389
3566 4 1490 1485 1388 1389
3567 5 1490 1485 1388 1391
3568 3 283 1490 1485 1388
3569 2 283 1490 1485 1486
3570 1 387 1490 1485 1388
3571 6 1510 1509 1422 1423
3572 4 1511 1509 1422 1423
3573 5 1511 1509 1422 1428
3574 3 1973 1511 1509 1422
3575 2 1973 1511 1509 1510
3576 1 2064 1511 1509 1422
3577 7 1528 1525 1532 288
3578 9 1653 1525 1532 288
3579 8 1528 1525 1532 1526
3580 10 1653 1525 1532 1526
3581 7 1528 1525 1653 1442
3582 9 1532 1525 1653 1442
3583 8 1528 1525 1653 1651
3584 10 1532 1525 1653 1651
3585 8 1575 1572 1576 1573
3586 10 1632 1572 1576 1573
3587 7 1575 1572 1576 1966
3588 9 1632 1572 1576 1966
3589 7 1575 1572 1632 1466
3590 9 1576 1572 1632 1466
3591 8 1575 1572 1632 1627
3592 10 1576 1572 1632 1627
3593 7 1585 1582 1589 387
3594 9 1614 1582 1589 387
3595 8 1585 1582 1589 1583
3596 10 1614 1582 1589 1583
3597 8 1585 1582 1614 1612
3598 10 1589 1582 1614 1612
3599 7 1585 1582 1614 2064
3600 9 1589 1582 1614 2064
3601 4 856 850 961 962
3602 1 840 856 850 961
3603 2 1953 856 850 851
3604 3 1953 856 850 961
3605 4 861 858 944 945
3606 2 305 861 858 859
3607 3 305 861 858 944
3608 1 862 861 858 944
3609 4 898 892 924 925
3610 2 615 898 892 893
3611 3 615 898 892 924
3612 1 899 898 892 924
3613 6 925 924 892 893
3614 4 926 924 892 893
3615 5 926 924 892 898
3616 3 615 926 924 892
3617 2 615 926 924 925
3618 1 905 926 924 892
3619 6 945 944 858 859
3620 4 949 944 858 859
3621 5 949 944 858 861
3622 3 305 949 944 858
3623 2 305 949 944 945
3624 1 950 949 944 858
3625 6 962 961 850 851
3626 4 963 961 850 851
3627 5 963 961 850 856
3628 1 943 963 961 850
3629 3 1953 963 961 850
3630 2 1953 963 961 962
3631 7 989 986 993 840
3632 9 1104 986 993 840
3633 8 989 986 993 987
3634 10 1104 986 993 987
3635 7 989 986 1104 905
3636 9 993 986 1104 905
3637 8 989 986 1104 1102
3638 10 993 986 1104 1102
3639 7 1013 1010 1014 862
3640 9 1089 1010 1014 862
3641 8 1013 1010 1014 1011
3642 10 1089 1010 1014 1011
3643 7 1013 1010 1089 899
3644 9 1014 1010 1089 899
3645 8 1013 1010 1089 1084
3646 10 1014 1010 1089 1084
3647 7 1046 1043 1050 943
3648 9 1053 1043 1050 943
3649 8 1046 1043 1050 1044
3650 10 1053 1043 1050 1044
3651 7 1046 1043 1053 950
3652 9 1050 1043 1053 950
3653 8 1046 1043 1053 1051
3654 10 1050 1043 1053 1051
3655 7 852 849 1960 1944
3656 9 2067 849 1960 1944
3657 8 852 849 1960 1954
3658 10 2067 849 1960 1954
3659 7 852 849 2067 2047
3660 9 1960 849 2067 2047
3661 8 852 849 2067 2065
3662 10 1960 849 2067 2065
3663 12 472 862 324 318
3664 11 472 862 324 869
3665 12 861 862 324 318
3666 11 861 862 324 869
3667 12 1014 862 324 318
3668 11 1014 862 324 869
3669 11 324 862 472 468
3670 12 324 862 472 469
3671 11 861 862 472 468
3672 12 861 862 472 469
3673 11 1014 862 472 468
3674 12 1014 862 472 469
3675 11 324 862 861 305
3676 12 324 862 861 858
3677 11 472 862 861 305
3678 12 472 862 861 858
3679 11 1014 862 861 305
3680 12 1014 862 861 858
3681 11 324 862 1014 1010
3682 11 472 862 1014 1010
3683 11 861 862 1014 1010
3684 12 324 862 1014 1011
3685 12 472 862 1014 1011
3686 12 861 862 1014 1011
3687 10 407 869 324 318
3688 9 407 869 324 862
3689 8 872 869 324 318
3690 7 872 869 324 862
3691 10 324 869 407 405
3692 9 324 869 407 960
3693 8 872 869 407 405
3694 7 872 869 407 960
3695 10 647 885 613 610
3696 9 647 885 613 890
3697 8 888 885 613 610
3698 7 888 885 613 890
3699 10 613 885 647 642
3700 9 613 885 647 899
3701 8 888 885 647 642
3702 7 888 885 647 899
3703 12 798 899 647 642
3704 11 798 899 647 885
3705 12 898 899 647 642
3706 11 898 899 647 885
3707 12 1089 899 647 642
3708 11 1089 899 647 885
3709 11 647 899 798 705
3710 12 647 899 798 793
3711 11 898 899 798 705
3712 12 898 899 798 793
3713 11 1089 899 798 705
3714 12 1089 899 798 793
3715 11 647 899 898 615
3716 12 647 899 898 892
3717 11 798 899 898 615
3718 12 798 899 898 892
3719 11 1089 899 898 615
3720 12 1089 899 898 892
3721 11 647 899 1089 1010
3722 11 798 899 1089 1010
3723 11 898 899 1089 1010
3724 12 647 899 1089 1084
3725 12 798 899 1089 1084
3726 12 898 899 1089 1084
3727 4 980 974 1099 1100
3728 2 973 980 974 975
3729 3 973 980 974 1099
3730 1 1944 980 974 1099
3731 4 1014 1011 1084 1085
3732 1 862 1014 1011 1084
3733 2 1010 1014 1011 1012
3734 3 1010 1014 1011 1084
3735 4 1042 1039 1063 1064
3736 1 960 1042 1039 1063
3737 2 1038 1042 1039 1040
3738 3 1038 1042 1039 1063
3739 6 1064 1063 1039 1040
3740 4 1068 1063 1039 1040
3741 5 1068 1063 1039 1042
3742 3 1038 1068 1063 1039
3743 2 1038 1068 1063 1064
3744 1 2047 1068 1063 1039
3745 6 1085 1084 1011 1012
3746 4 1089 1084 1011 1012
3747 5 1089 1084 1011 1014
3748 1 899 1089 1084 1011
3749 3 1010 1089 1084 1011
3750 2 1010 1089 1084 1085
3751 6 1100 1099 974 975
3752 4 1101 1099 974 975
3753 5 1101 1099 974 980
3754 1 890 1101 1099 974
3755 3 973 1101 1099 974
3756 2 973 1101 1099 1100
3757 4 1960 1954 2065 2066
3758 2 849 1960 1954 1955
3759 3 849 1960 1954 2065
3760 1 1944 1960 1954 2065
3761 4 1965 1962 2048 2049
3762 2 1409 1965 1962 1963
3763 3 1409 1965 1962 2048
3764 1 1966 1965 1962 2048
3765 4 2002 1996 2028 2029
3766 2 1719 2002 1996 1997
3767 3 1719 2002 1996 2028
3768 1 2003 2002 1996 2028
3769 6 2029 2028 1996 1997
3770 4 2030 2028 1996 1997
3771 5 2030 2028 1996 2002
3772 3 1719 2030 2028 1996
3773 2 1719 2030 2028 2029
3774 1 2009 2030 2028 1996
3775 6 2049 2048 1962 1963
3776 4 2053 2048 1962 1963
3777 5 2053 2048 1962 1965
3778 3 1409 2053 2048 1962
3779 2 1409 2053 2048 2049
3780 1 2054 2053 2048 1962
3781 6 2066 2065 1954 1955
3782 4 2067 2065 1954 1955
3783 5 2067 2065 1954 1960
3784 3 849 2067 2065 1954
3785 2 849 2067 2065 2066
3786 1 2047 2067 2065 1954
3787 7 2093 2090 2097 1944
3788 9 2208 2090 2097 1944
3789 8 2093 2090 2097 2091
3790 10 2208 2090 2097 2091
3791 7 2093 2090 2208 2009
3792 9 2097 2090 2208 2009
3793 8 2093 2090 2208 2206
3794 10 2097 2090 2208 2206
3795 7 2117 2114 2118 1966
3796 9 2193 2114 2118 1966
3797 8 2117 2114 2118 2115
3798 10 2193 2114 2118 2115
3799 7 2117 2114 2193 2003
3800 9 2118 2114 2193 2003
3801 8 2117 2114 2193 2188
3802 10 2118 2114 2193 2188
3803 7 2150 2147 2154 2047
3804 9 2157 2147 2154 2047
3805 8 2150 2147 2154 2148
3806 10 2157 2147 2154 2148
3807 7 2150 2147 2157 2054
3808 9 2154 2147 2157 2054
3809 8 2150 2147 2157 2155
3810 10 2154 2147 2157 2155
3811 9 963 1953 856 840
3812 10 963 1953 856 850
3813 7 1956 1953 856 840
3814 8 1956 1953 856 850
3815 9 856 1953 963 943
3816 10 856 1953 963 961
3817 7 1956 1953 963 943
3818 8 1956 1953 963 961
3819 12 1576 1966 1428 1422
3820 11 1576 1966 1428 1973
3821 12 1965 1966 1428 1422
3822 11 1965 1966 1428 1973
3823 12 2118 1966 1428 1422
3824 11 2118 1966 1428 1973
3825 11 1428 1966 1576 1572
3826 12 1428 1966 1576 1573
3827 11 1965 1966 1576 1572
3828 12 1965 1966 1576 1573
3829 11 2118 1966 1576 1572
3830 12 2118 1966 1576 1573
3831 11 1428 1966 1965 1409
3832 12 1428 1966 1965 1962
3833 11 1576 1966 1965 1409
3834 12 1576 1966 1965 1962
3835 11 2118 1966 1965 1409
3836 12 2118 1966 1965 1962
3837 11 1428 1966 2118 2114
3838 11 1576 1966 2118 2114
3839 11 1965 1966 2118 2114
3840 12 1428 1966 2118 2115
3841 12 1576 1966 2118 2115
3842 12 1965 1966 2118 2115
3843 10 1511 1973 1428 1422
3844 9 1511 1973 1428 1966
3845 8 1976 1973 1428 1422
3846 7 1976 1973 1428 1966
3847 10 1428 1973 1511 1509
3848 9 1428 1973 1511 2064
3849 8 1976 1973 1511 1509
3850 7 1976 1973 1511 2064
3851 10 1751 1989 1717 1714
3852 9 1751 1989 1717 1994
3853 8 1992 1989 1717 1714
3854 7 1992 1989 1717 1994
3855 10 1717 1989 1751 1746
3856 9 1717 1989 1751 2003
3857 8 1992 1989 1751 1746
3858 7 1992 1989 1751 2003
3859 12 1902 2003 1751 1746
3860 11 1902 2003 1751 1989
3861 12 2002 2003 1751 1746
3862 11 2002 2003 1751 1989
3863 12 2193 2003 1751 1746
3864 11 2193 2003 1751 1989
3865 11 1751 2003 1902 1809
3866 12 1751 2003 1902 1897
3867 11 2002 2003 1902 1809
3868 12 2002 2003 1902 1897
3869 11 2193 2003 1902 1809
3870 12 2193 2003 1902 1897
3871 11 1751 2003 2002 1719
3872 12 1751 2003 2002 1996
3873 11 1902 2003 2002 1719
3874 12 1902 2003 2002 1996
3875 11 2193 2003 2002 1719
3876 12 2193 2003 2002 1996
3877 11 1751 2003 2193 2114
3878 11 1902 2003 2193 2114
3879 11 2002 2003 2193 2114
3880 12 1751 2003 2193 2188
3881 12 1902 2003 2193 2188
3882 12 2002 2003 2193 2188
3883 4 2084 2078 2203 2204
3884 1 840 2084 2078 2203
3885 2 2077 2084 2078 2079
3886 3 2077 2084 2078 2203
3887 4 2118 2115 2188 2189
3888 1 1966 2118 2115 2188
3889 2 2114 2118 2115 2116
3890 3 2114 2118 2115 2188
3891 4 2146 2143 2167 2168
3892 1 2064 2146 2143 2167
3893 2 2142 2146 2143 2144
3894 3 2142 2146 2143 2167
3895 6 2168 2167 2143 2144
3896 4 2172 2167 2143 2144
3897 5 2172 2167 2143 2146
3898 1 943 2172 2167 2143
3899 3 2142 2172 2167 2143
3900 2 2142 2172 2167 2168
3901 6 2189 2188 2115 2116
3902 4 2193 2188 2115 2116
3903 5 2193 2188 2115 2118
3904 1 2003 2193 2188 2115
3905 3 2114 2193 2188 2115
3906 2 2114 2193 2188 2189
3907 6 2204 2203 2078 2079
3908 4 2205 2203 2078 2079
3909 5 2205 2203 2078 2084
3910 1 1994 2205 2203 2078
3911 3 2077 2205 2203 2078
3912 2 2077 2205 2203 2204
3913 7 838 835 1943 840
3914 9 2042 835 1943 840
3915 8 838 835 1943 1940
3916 10 2042 835 1943 1940
3917 7 838 835 2042 939
3918 9 1943 835 2042 939
3919 8 838 835 2042 2037
3920 10 1943 835 2042 2037
3921 12 993 840 856 850
3922 12 1943 840 856 850
3923 12 2084 840 856 850
3924 11 993 840 856 1953
3925 11 1943 840 856 1953
3926 11 2084 840 856 1953
3927 11 856 840 993 986
3928 11 1943 840 993 986
3929 11 2084 840 993 986
3930 12 856 840 993 987
3931 12 1943 840 993 987
3932 12 2084 840 993 987
3933 11 856 840 1943 835
3934 11 993 840 1943 835
3935 11 2084 840 1943 835
3936 12 856 840 1943 1940
3937 12 993 840 1943 1940
3938 12 2084 840 1943 1940
3939 11 856 840 2084 2077
3940 11 993 840 2084 2077
3941 11 1943 840 2084 2077
3942 12 856 840 2084 2078
3943 12 993 840 2084 2078
3944 12 1943 840 2084 2078
3945 10 397 857 309 306
3946 9 397 857 309 310
3947 8 860 857 309 306
3948 7 860 857 309 310
3949 10 309 857 397 392
3950 9 309 857 397 398
3951 8 860 857 397 392
3952 7 860 857 397 398
3953 10 656 900 628 625
3954 9 656 900 628 905
3955 8 903 900 628 625
3956 7 903 900 628 905
3957 10 628 900 656 651
3958 9 628 900 656 914
3959 8 903 900 656 651
3960 7 903 900 656 914
3961 12 819 905 628 625
3962 11 819 905 628 900
3963 12 926 905 628 625
3964 11 926 905 628 900
3965 12 1104 905 628 625
3966 11 1104 905 628 900
3967 11 628 905 819 739
3968 12 628 905 819 814
3969 11 926 905 819 739
3970 12 926 905 819 814
3971 11 1104 905 819 739
3972 12 1104 905 819 814
3973 11 628 905 926 615
3974 11 819 905 926 615
3975 11 1104 905 926 615
3976 12 628 905 926 924
3977 12 819 905 926 924
3978 12 1104 905 926 924
3979 11 628 905 1104 986
3980 11 819 905 1104 986
3981 11 926 905 1104 986
3982 12 628 905 1104 1102
3983 12 819 905 1104 1102
3984 12 926 905 1104 1102
3985 4 993 987 1102 1103
3986 1 840 993 987 1102
3987 2 986 993 987 988
3988 3 986 993 987 1102
3989 4 1024 1021 1075 1076
3990 1 310 1024 1021 1075
3991 2 1020 1024 1021 1022
3992 3 1020 1024 1021 1075
3993 4 1029 1026 1054 1055
3994 1 398 1029 1026 1054
3995 2 1025 1029 1026 1027
3996 3 1025 1029 1026 1054
3997 6 1055 1054 1026 1027
3998 4 1059 1054 1026 1027
3999 5 1059 1054 1026 1029
4000 1 939 1059 1054 1026
4001 3 1025 1059 1054 1026
4002 2 1025 1059 1054 1055
4003 6 1076 1075 1021 1022
4004 4 1080 1075 1021 1022
4005 5 1080 1075 1021 1024
4006 1 914 1080 1075 1021
4007 3 1020 1080 1075 1021
4008 2 1020 1080 1075 1076
4009 6 1103 1102 987 988
4010 4 1104 1102 987 988
4011 5 1104 1102 987 993
4012 1 905 1104 1102 987
4013 3 986 1104 1102 987
4014 2 986 1104 1102 1103
4015 4 839 836 933 934
4016 2 1939 839 836 837
4017 3 1939 839 836 933
4018 1 1944 839 836 933
4019 4 876 870 957 958
4020 1 310 876 870 957
4021 2 317 876 870 871
4022 3 317 876 870 957
4023 12 807 890 613 610
4024 11 807 890 613 885
4025 12 917 890 613 610
4026 11 917 890 613 885
4027 12 1101 890 613 610
4028 11 1101 890 613 885
4029 11 613 890 807 726
4030 12 613 890 807 805
4031 11 917 890 807 726
4032 12 917 890 807 805
4033 11 1101 890 807 726
4034 12 1101 890 807 805
4035 11 613 890 917 630
4036 11 807 890 917 630
4037 11 1101 890 917 630
4038 12 613 890 917 915
4039 12 807 890 917 915
4040 12 1101 890 917 915
4041 11 613 890 1101 973
4042 11 807 890 1101 973
4043 11 917 890 1101 973
4044 12 613 890 1101 1099
4045 12 807 890 1101 1099
4046 12 917 890 1101 1099
4047 4 913 907 915 916
4048 2 630 913 907 908
4049 3 630 913 907 915
4050 1 914 913 907 915
4051 12 822 914 656 651
4052 11 822 914 656 900
4053 12 913 914 656 651
4054 11 913 914 656 900
4055 12 1080 914 656 651
4056 11 1080 914 656 900
4057 11 656 914 822 718
4058 12 656 914 822 820
4059 11 913 914 822 718
4060 12 913 914 822 820
4061 11 1080 914 822 718
4062 12 1080 914 822 820
4063 11 656 914 913 630
4064 12 656 914 913 907
4065 11 822 914 913 630
4066 12 822 914 913 907
4067 11 1080 914 913 630
4068 12 1080 914 913 907
4069 11 656 914 1080 1020
4070 11 822 914 1080 1020
4071 11 913 914 1080 1020
4072 12 656 914 1080 1075
4073 12 822 914 1080 1075
4074 12 913 914 1080 1075
4075 6 916 915 907 908
4076 4 917 915 907 908
4077 5 917 915 907 913
4078 3 630 917 915 907
4079 2 630 917 915 916
4080 1 890 917 915 907
4081 6 934 933 836 837
4082 4 938 933 836 837
4083 5 938 933 836 839
4084 3 1939 938 933 836
4085 2 1939 938 933 934
4086 1 2043 938 933 836
4087 6 958 957 870 871
4088 4 959 957 870 871
4089 5 959 957 870 876
4090 3 317 959 957 870
4091 2 317 959 957 958
4092 1 408 959 957 870
4093 8 976 973 980 974
4094 10 1101 973 980 974
4095 7 976 973 980 1944
4096 9 1101 973 980 1944
4097 7 976 973 1101 890
4098 9 980 973 1101 890
4099 8 976 973 1101 1099
4100 10 980 973 1101 1099
4101 7 1023 1020 1024 310
4102 9 1080 1020 1024 310
4103 8 1023 1020 1024 1021
4104 10 1080 1020 1024 1021
4105 7 1023 1020 1080 914
4106 9 1024 1020 1080 914
4107 8 1023 1020 1080 1075
4108 10 1024 1020 1080 1075
4109 8 1033 1030 1037 1031
4110 10 1062 1030 1037 1031
4111 7 1033 1030 1037 2043
4112 9 1062 1030 1037 2043
4113 7 1033 1030 1062 408
4114 9 1037 1030 1062 408
4115 8 1033 1030 1062 1060
4116 10 1037 1030 1062 1060
4117 10 938 1939 839 836
4118 9 938 1939 839 1944
4119 8 1942 1939 839 836
4120 7 1942 1939 839 1944
4121 10 839 1939 938 933
4122 9 839 1939 938 2043
4123 8 1942 1939 938 933
4124 7 1942 1939 938 2043
4125 12 980 1944 839 836
4126 11 980 1944 839 1939
4127 12 1960 1944 839 836
4128 11 1960 1944 839 1939
4129 12 2097 1944 839 836
4130 11 2097 1944 839 1939
4131 11 839 1944 980 973
4132 12 839 1944 980 974
4133 11 1960 1944 980 973
4134 12 1960 1944 980 974
4135 11 2097 1944 980 973
4136 12 2097 1944 980 974
4137 11 839 1944 1960 849
4138 11 980 1944 1960 849
4139 11 2097 1944 1960 849
4140 12 839 1944 1960 1954
4141 12 980 1944 1960 1954
4142 12 2097 1944 1960 1954
4143 11 839 1944 2097 2090
4144 11 980 1944 2097 2090
4145 11 1960 1944 2097 2090
4146 12 839 1944 2097 2091
4147 12 980 1944 2097 2091
4148 12 1960 1944 2097 2091
4149 10 1501 1961 1413 1410
4150 9 1501 1961 1413 1414
4151 8 1964 1961 1413 1410
4152 7 1964 1961 1413 1414
4153 10 1413 1961 1501 1496
4154 9 1413 1961 1501 1502
4155 8 1964 1961 1501 1496
4156 7 1964 1961 1501 1502
4157 10 1760 2004 1732 1729
4158 9 1760 2004 1732 2009
4159 8 2007 2004 1732 1729
4160 7 2007 2004 1732 2009
4161 10 1732 2004 1760 1755
4162 9 1732 2004 1760 2018
4163 8 2007 2004 1760 1755
4164 7 2007 2004 1760 2018
4165 12 1923 2009 1732 1729
4166 11 1923 2009 1732 2004
4167 12 2030 2009 1732 1729
4168 11 2030 2009 1732 2004
4169 12 2208 2009 1732 1729
4170 11 2208 2009 1732 2004
4171 11 1732 2009 1923 1843
4172 12 1732 2009 1923 1918
4173 11 2030 2009 1923 1843
4174 12 2030 2009 1923 1918
4175 11 2208 2009 1923 1843
4176 12 2208 2009 1923 1918
4177 11 1732 2009 2030 1719
4178 11 1923 2009 2030 1719
4179 11 2208 2009 2030 1719
4180 12 1732 2009 2030 2028
4181 12 1923 2009 2030 2028
4182 12 2208 2009 2030 2028
4183 11 1732 2009 2208 2090
4184 11 1923 2009 2208 2090
4185 11 2030 2009 2208 2090
4186 12 1732 2009 2208 2206
4187 12 1923 2009 2208 2206
4188 12 2030 2009 2208 2206
4189 4 2097 2091 2206 2207
4190 1 1944 2097 2091 2206
4191 2 2090 2097 2091 2092
4192 3 2090 2097 2091 2206
4193 4 2128 2125 2179 2180
4194 1 1414 2128 2125 2179
4195 2 2124 2128 2125 2126
4196 3 2124 2128 2125 2179
4197 4 2133 2130 2158 2159
4198 1 1502 2133 2130 2158
4199 2 2129 2133 2130 2131
4200 3 2129 2133 2130 2158
4201 6 2159 2158 2130 2131
4202 4 2163 2158 2130 2131
4203 5 2163 2158 2130 2133
4204 1 2043 2163 2158 2130
4205 3 2129 2163 2158 2130
4206 2 2129 2163 2158 2159
4207 6 2180 2179 2125 2126
4208 4 2184 2179 2125 2126
4209 5 2184 2179 2125 2128
4210 1 2018 2184 2179 2125
4211 3 2124 2184 2179 2125
4212 2 2124 2184 2179 2180
4213 6 2207 2206 2091 2092
4214 4 2208 2206 2091 2092
4215 5 2208 2206 2091 2097
4216 1 2009 2208 2206 2091
4217 3 2090 2208 2206 2091
4218 2 2090 2208 2206 2207
4219 4 1943 1940 2037 2038
4220 2 835 1943 1940 1941
4221 3 835 1943 1940 2037
4222 1 840 1943 1940 2037
4223 4 1980 1974 2061 2062
4224 1 1414 1980 1974 2061
4225 2 1421 1980 1974 1975
4226 3 1421 1980 1974 2061
4227 12 1911 1994 1717 1714
4228 11 1911 1994 1717 1989
4229 12 2021 1994 1717 1714
4230 11 2021 1994 1717 1989
4231 12 2205 1994 1717 1714
4232 11 2205 1994 1717 1989
4233 11 1717 1994 1911 1830
4234 12 1717 1994 1911 1909
4235 11 2021 1994 1911 1830
4236 12 2021 1994 1911 1909
4237 11 2205 1994 1911 1830
4238 12 2205 1994 1911 1909
4239 11 1717 1994 2021 1734
4240 11 1911 1994 2021 1734
4241 11 2205 1994 2021 1734
4242 12 1717 1994 2021 2019
4243 12 1911 1994 2021 2019
4244 12 2205 1994 2021 2019
4245 11 1717 1994 2205 2077
4246 11 1911 1994 2205 2077
4247 11 2021 1994 2205 2077
4248 12 1717 1994 2205 2203
4249 12 1911 1994 2205 2203
4250 12 2021 1994 2205 2203
4251 4 2017 2011 2019 2020
4252 2 1734 2017 2011 2012
4253 3 1734 2017 2011 2019
4254 1 2018 2017 2011 2019
4255 12 1926 2018 1760 1755
4256 11 1926 2018 1760 2004
4257 12 2017 2018 1760 1755
4258 11 2017 2018 1760 2004
4259 12 2184 2018 1760 1755
4260 11 2184 2018 1760 2004
4261 11 1760 2018 1926 1822
4262 12 1760 2018 1926 1924
4263 11 2017 2018 1926 1822
4264 12 2017 2018 1926 1924
4265 11 2184 2018 1926 1822
4266 12 2184 2018 1926 1924
4267 11 1760 2018 2017 1734
4268 12 1760 2018 2017 2011
4269 11 1926 2018 2017 1734
4270 12 1926 2018 2017 2011
4271 11 2184 2018 2017 1734
4272 12 2184 2018 2017 2011
4273 11 1760 2018 2184 2124
4274 11 1926 2018 2184 2124
4275 11 2017 2018 2184 2124
4276 12 1760 2018 2184 2179
4277 12 1926 2018 2184 2179
4278 12 2017 2018 2184 2179
4279 6 2020 2019 2011 2012
4280 4 2021 2019 2011 2012
4281 5 2021 2019 2011 2017
4282 3 1734 2021 2019 2011
4283 2 1734 2021 2019 2020
4284 1 1994 2021 2019 2011
4285 6 2038 2037 1940 1941
4286 4 2042 2037 1940 1941
4287 5 2042 2037 1940 1943
4288 3 835 2042 2037 1940
4289 2 835 2042 2037 2038
4290 1 939 2042 2037 1940
4291 6 2062 2061 1974 1975
4292 4 2063 2061 1974 1975
4293 5 2063 2061 1974 1980
4294 3 1421 2063 2061 1974
4295 2 1421 2063 2061 2062
4296 1 1512 2063 2061 1974
4297 7 2080 2077 2084 840
4298 9 2205 2077 2084 840
4299 8 2080 2077 2084 2078
4300 10 2205 2077 2084 2078
4301 7 2080 2077 2205 1994
4302 9 2084 2077 2205 1994
4303 8 2080 2077 2205 2203
4304 10 2084 2077 2205 2203
4305 7 2127 2124 2128 1414
4306 9 2184 2124 2128 1414
4307 8 2127 2124 2128 2125
4308 10 2184 2124 2128 2125
4309 7 2127 2124 2184 2018
4310 9 2128 2124 2184 2018
4311 8 2127 2124 2184 2179
4312 10 2128 2124 2184 2179
4313 7 2137 2134 2141 939
4314 9 2166 2134 2141 939
4315 8 2137 2134 2141 2135
4316 10 2166 2134 2141 2135
4317 7 2137 2134 2166 1512
4318 9 2141 2134 2166 1512
4319 8 2137 2134 2166 2164
4320 10 2141 2134 2166 2164
4321 7 280 277 833 282
4322 9 969 277 833 282
4323 8 280 277 833 830
4324 10 969 277 833 830
4325 7 280 277 969 398
4326 9 833 277 969 398
4327 8 280 277 969 964
4328 10 833 277 969 964
4329 7 328 325 1436 316
4330 9 1494 325 1436 316
4331 8 328 325 1436 1430
4332 10 1494 325 1436 1430
4333 7 328 325 1494 391
4334 9 1436 325 1494 391
4335 8 328 325 1494 1492
4336 10 1436 325 1494 1492
4337 10 98 339 70 64
4338 9 98 339 70 71
4339 8 342 339 70 64
4340 7 342 339 70 71
4341 9 70 339 98 77
4342 10 70 339 98 96
4343 7 342 339 98 77
4344 8 342 339 98 96
4345 12 498 391 411 409
4346 12 1494 391 411 409
4347 12 1620 391 411 409
4348 11 498 391 411 1401
4349 11 1494 391 411 1401
4350 11 1620 391 411 1401
4351 11 411 391 498 491
4352 11 1494 391 498 491
4353 11 1620 391 498 491
4354 12 411 391 498 492
4355 12 1494 391 498 492
4356 12 1620 391 498 492
4357 11 411 391 1494 325
4358 11 498 391 1494 325
4359 11 1620 391 1494 325
4360 12 411 391 1494 1492
4361 12 498 391 1494 1492
4362 12 1620 391 1494 1492
4363 11 411 391 1620 1590
4364 11 498 391 1620 1590
4365 11 1494 391 1620 1590
4366 12 411 391 1620 1615
4367 12 498 391 1620 1615
4368 12 1494 391 1620 1615
4369 12 501 398 397 392
4370 11 501 398 397 857
4371 12 969 398 397 392
4372 11 969 398 397 857
4373 12 1029 398 397 392
4374 11 1029 398 397 857
4375 11 397 398 501 491
4376 11 969 398 501 491
4377 11 1029 398 501 491
4378 12 397 398 501 499
4379 12 969 398 501 499
4380 12 1029 398 501 499
4381 11 397 398 969 277
4382 11 501 398 969 277
4383 11 1029 398 969 277
4384 12 397 398 969 964
4385 12 501 398 969 964
4386 12 1029 398 969 964
4387 11 397 398 1029 1025
4388 11 501 398 1029 1025
4389 11 969 398 1029 1025
4390 12 397 398 1029 1026
4391 12 501 398 1029 1026
4392 12 969 398 1029 1026
4393 4 433 430 517 518
4394 1 282 433 430 517
4395 2 429 433 430 431
4396 3 429 433 430 517
4397 4 467 464 538 539
4398 1 316 467 464 538
4399 2 463 467 464 465
4400 3 463 467 464 538
4401 4 498 492 499 500
4402 1 391 498 492 499
4403 2 491 498 492 493
4404 3 491 498 492 499
4405 6 500 499 492 493
4406 4 501 499 492 493
4407 5 501 499 492 498
4408 1 398 501 499 492
4409 3 491 501 499 492
4410 2 491 501 499 500
4411 6 518 517 430 431
4412 4 522 517 430 431
4413 5 522 517 430 433
4414 1 71 522 517 430
4415 3 429 522 517 430
4416 2 429 522 517 518
4417 6 539 538 464 465
4418 4 543 538 464 465
4419 5 543 538 464 467
4420 1 77 543 538 464
4421 3 463 543 538 464
4422 2 463 543 538 539
4423 12 433 282 296 290
4424 12 833 282 296 290
4425 12 1001 282 296 290
4426 11 433 282 296 841
4427 11 833 282 296 841
4428 11 1001 282 296 841
4429 11 296 282 433 429
4430 11 833 282 433 429
4431 11 1001 282 433 429
4432 12 296 282 433 430
4433 12 833 282 433 430
4434 12 1001 282 433 430
4435 11 296 282 833 277
4436 11 433 282 833 277
4437 11 1001 282 833 277
4438 12 296 282 833 830
4439 12 433 282 833 830
4440 12 1001 282 833 830
4441 11 296 282 1001 994
4442 11 433 282 1001 994
4443 11 833 282 1001 994
4444 12 296 282 1001 995
4445 12 433 282 1001 995
4446 12 833 282 1001 995
4447 4 296 290 418 419
4448 1 282 296 290 418
4449 2 841 296 290 291
4450 3 841 296 290 418
4451 4 332 326 388 389
4452 1 1420 332 326 388
4453 2 1429 332 326 327
4454 3 1429 332 326 388
4455 4 337 334 366 367
4456 2 57 337 334 335
4457 3 57 337 334 366
4458 1 62 337 334 366
4459 6 367 366 334 335
4460 4 371 366 334 335
4461 5 371 366 334 337
4462 3 57 371 366 334
4463 2 57 371 366 367
4464 1 71 371 366 334
4465 6 389 388 326 327
4466 4 390 388 326 327
4467 5 390 388 326 332
4468 3 1429 390 388 326
4469 2 1429 390 388 389
4470 1 1495 390 388 326
4471 12 490 408 420 418
4472 12 959 408 420 418
4473 12 1062 408 420 418
4474 11 490 408 420 841
4475 11 959 408 420 841
4476 11 1062 408 420 841
4477 11 420 408 490 486
4478 11 959 408 490 486
4479 11 1062 408 490 486
4480 12 420 408 490 487
4481 12 959 408 490 487
4482 12 1062 408 490 487
4483 11 420 408 959 317
4484 11 490 408 959 317
4485 11 1062 408 959 317
4486 12 420 408 959 957
4487 12 490 408 959 957
4488 12 1062 408 959 957
4489 11 420 408 1062 1030
4490 11 490 408 1062 1030
4491 11 959 408 1062 1030
4492 12 420 408 1062 1060
4493 12 490 408 1062 1060
4494 12 959 408 1062 1060
4495 6 419 418 290 291
4496 4 420 418 290 291
4497 5 420 418 290 296
4498 1 408 420 418 290
4499 3 841 420 418 290
4500 2 841 420 418 419
4501 7 432 429 433 282
4502 9 522 429 433 282
4503 8 432 429 433 430
4504 10 522 429 433 430
4505 7 432 429 522 71
4506 9 433 429 522 71
4507 8 432 429 522 517
4508 10 433 429 522 517
4509 8 453 450 457 451
4510 10 531 450 457 451
4511 7 453 450 457 1420
4512 9 531 450 457 1420
4513 7 453 450 531 62
4514 9 457 450 531 62
4515 8 453 450 531 529
4516 10 457 450 531 529
4517 7 489 486 490 408
4518 9 516 486 490 408
4519 8 489 486 490 487
4520 10 516 486 490 487
4521 8 489 486 516 511
4522 10 490 486 516 511
4523 7 489 486 516 1495
4524 9 490 486 516 1495
4525 7 1384 1381 1937 1386
4526 9 2073 1381 1937 1386
4527 8 1384 1381 1937 1934
4528 10 2073 1381 1937 1934
4529 7 1384 1381 2073 1502
4530 9 1937 1381 2073 1502
4531 8 1384 1381 2073 2068
4532 10 1937 1381 2073 2068
4533 10 390 1429 332 326
4534 9 390 1429 332 1420
4535 8 1432 1429 332 326
4536 7 1432 1429 332 1420
4537 10 332 1429 390 388
4538 9 332 1429 390 1495
4539 8 1432 1429 390 388
4540 7 1432 1429 390 1495
4541 10 1202 1443 1174 1168
4542 9 1202 1443 1174 1175
4543 8 1446 1443 1174 1168
4544 7 1446 1443 1174 1175
4545 9 1174 1443 1202 1181
4546 10 1174 1443 1202 1200
4547 7 1446 1443 1202 1181
4548 8 1446 1443 1202 1200
4549 12 516 1495 390 388
4550 11 516 1495 390 1429
4551 12 1515 1495 390 388
4552 11 1515 1495 390 1429
4553 12 1602 1495 390 388
4554 11 1602 1495 390 1429
4555 11 390 1495 516 486
4556 12 390 1495 516 511
4557 11 1515 1495 516 486
4558 12 1515 1495 516 511
4559 11 1602 1495 516 486
4560 12 1602 1495 516 511
4561 11 390 1495 1515 297
4562 11 516 1495 1515 297
4563 11 1602 1495 1515 297
4564 12 390 1495 1515 1513
4565 12 516 1495 1515 1513
4566 12 1602 1495 1515 1513
4567 11 390 1495 1602 1595
4568 11 516 1495 1602 1595
4569 11 1515 1495 1602 1595
4570 12 390 1495 1602 1596
4571 12 516 1495 1602 1596
4572 12 1515 1495 1602 1596
4573 12 1605 1502 1501 1496
4574 11 1605 1502 1501 1961
4575 12 2073 1502 1501 1496
4576 11 2073 1502 1501 1961
4577 12 2133 1502 1501 1496
4578 11 2133 1502 1501 1961
4579 11 1501 1502 1605 1595
4580 11 2073 1502 1605 1595
4581 11 2133 1502 1605 1595
4582 12 1501 1502 1605 1603
4583 12 2073 1502 1605 1603
4584 12 2133 1502 1605 1603
4585 11 1501 1502 2073 1381
4586 11 1605 1502 2073 1381
4587 11 2133 1502 2073 1381
4588 12 1501 1502 2073 2068
4589 12 1605 1502 2073 2068
4590 12 2133 1502 2073 2068
4591 11 1501 1502 2133 2129
4592 11 1605 1502 2133 2129
4593 11 2073 1502 2133 2129
4594 12 1501 1502 2133 2130
4595 12 1605 1502 2133 2130
4596 12 2073 1502 2133 2130
4597 4 1537 1534 1621 1622
4598 1 1386 1537 1534 1621
4599 2 1533 1537 1534 1535
4600 3 1533 1537 1534 1621
4601 4 1571 1568 1642 1643
4602 1 1420 1571 1568 1642
4603 2 1567 1571 1568 1569
4604 3 1567 1571 1568 1642
4605 4 1602 1596 1603 1604
4606 1 1495 1602 1596 1603
4607 2 1595 1602 1596 1597
4608 3 1595 1602 1596 1603
4609 6 1604 1603 1596 1597
4610 4 1605 1603 1596 1597
4611 5 1605 1603 1596 1602
4612 1 1502 1605 1603 1596
4613 3 1595 1605 1603 1596
4614 2 1595 1605 1603 1604
4615 6 1622 1621 1534 1535
4616 4 1626 1621 1534 1535
4617 5 1626 1621 1534 1537
4618 1 1175 1626 1621 1534
4619 3 1533 1626 1621 1534
4620 2 1533 1626 1621 1622
4621 6 1643 1642 1568 1569
4622 4 1647 1642 1568 1569
4623 5 1647 1642 1568 1571
4624 1 1181 1647 1642 1568
4625 3 1567 1647 1642 1568
4626 2 1567 1647 1642 1643
4627 12 1537 1386 1400 1394
4628 12 1937 1386 1400 1394
4629 12 2105 1386 1400 1394
4630 11 1537 1386 1400 1945
4631 11 1937 1386 1400 1945
4632 11 2105 1386 1400 1945
4633 11 1400 1386 1537 1533
4634 11 1937 1386 1537 1533
4635 11 2105 1386 1537 1533
4636 12 1400 1386 1537 1534
4637 12 1937 1386 1537 1534
4638 12 2105 1386 1537 1534
4639 11 1400 1386 1937 1381
4640 11 1537 1386 1937 1381
4641 11 2105 1386 1937 1381
4642 12 1400 1386 1937 1934
4643 12 1537 1386 1937 1934
4644 12 2105 1386 1937 1934
4645 11 1400 1386 2105 2098
4646 11 1537 1386 2105 2098
4647 11 1937 1386 2105 2098
4648 12 1400 1386 2105 2099
4649 12 1537 1386 2105 2099
4650 12 1937 1386 2105 2099
4651 4 1400 1394 1522 1523
4652 1 1386 1400 1394 1522
4653 2 1945 1400 1394 1395
4654 3 1945 1400 1394 1522
4655 4 1436 1430 1492 1493
4656 1 316 1436 1430 1492
4657 2 325 1436 1430 1431
4658 3 325 1436 1430 1492
4659 4 1441 1438 1470 1471
4660 2 1161 1441 1438 1439
4661 3 1161 1441 1438 1470
4662 1 1166 1441 1438 1470
4663 6 1471 1470 1438 1439
4664 4 1475 1470 1438 1439
4665 5 1475 1470 1438 1441
4666 3 1161 1475 1470 1438
4667 2 1161 1475 1470 1471
4668 1 1175 1475 1470 1438
4669 6 1493 1492 1430 1431
4670 4 1494 1492 1430 1431
4671 5 1494 1492 1430 1436
4672 3 325 1494 1492 1430
4673 2 325 1494 1492 1493
4674 1 391 1494 1492 1430
4675 12 1594 1512 1524 1522
4676 12 2063 1512 1524 1522
4677 12 2166 1512 1524 1522
4678 11 1594 1512 1524 1945
4679 11 2063 1512 1524 1945
4680 11 2166 1512 1524 1945
4681 11 1524 1512 1594 1590
4682 11 2063 1512 1594 1590
4683 11 2166 1512 1594 1590
4684 12 1524 1512 1594 1591
4685 12 2063 1512 1594 1591
4686 12 2166 1512 1594 1591
4687 11 1524 1512 2063 1421
4688 11 1594 1512 2063 1421
4689 11 2166 1512 2063 1421
4690 12 1524 1512 2063 2061
4691 12 1594 1512 2063 2061
4692 12 2166 1512 2063 2061
4693 11 1524 1512 2166 2134
4694 11 1594 1512 2166 2134
4695 11 2063 1512 2166 2134
4696 12 1524 1512 2166 2164
4697 12 1594 1512 2166 2164
4698 12 2063 1512 2166 2164
4699 6 1523 1522 1394 1395
4700 4 1524 1522 1394 1395
4701 5 1524 1522 1394 1400
4702 1 1512 1524 1522 1394
4703 3 1945 1524 1522 1394
4704 2 1945 1524 1522 1523
4705 7 1536 1533 1537 1386
4706 9 1626 1533 1537 1386
4707 8 1536 1533 1537 1534
4708 10 1626 1533 1537 1534
4709 7 1536 1533 1626 1175
4710 9 1537 1533 1626 1175
4711 8 1536 1533 1626 1621
4712 10 1537 1533 1626 1621
4713 7 1557 1554 1561 316
4714 9 1635 1554 1561 316
4715 8 1557 1554 1561 1555
4716 10 1635 1554 1561 1555
4717 7 1557 1554 1635 1166
4718 9 1561 1554 1635 1166
4719 8 1557 1554 1635 1633
4720 10 1561 1554 1635 1633
4721 7 1593 1590 1594 1512
4722 9 1620 1590 1594 1512
4723 8 1593 1590 1594 1591
4724 10 1620 1590 1594 1591
4725 7 1593 1590 1620 391
4726 9 1594 1590 1620 391
4727 8 1593 1590 1620 1615
4728 10 1594 1590 1620 1615
4729 4 281 278 412 413
4730 2 829 281 278 279
4731 3 829 281 278 412
4732 1 834 281 278 412
4733 4 315 312 399 400
4734 1 316 315 312 399
4735 2 1415 315 312 313
4736 3 1415 315 312 399
4737 12 467 316 315 312
4738 11 467 316 315 1415
4739 12 1436 316 315 312
4740 11 1436 316 315 1415
4741 12 1561 316 315 312
4742 11 1561 316 315 1415
4743 11 315 316 467 463
4744 11 1436 316 467 463
4745 11 1561 316 467 463
4746 12 315 316 467 464
4747 12 1436 316 467 464
4748 12 1561 316 467 464
4749 11 315 316 1436 325
4750 11 467 316 1436 325
4751 11 1561 316 1436 325
4752 12 315 316 1436 1430
4753 12 467 316 1436 1430
4754 12 1561 316 1436 1430
4755 11 315 316 1561 1554
4756 11 467 316 1561 1554
4757 11 1436 316 1561 1554
4758 12 315 316 1561 1555
4759 12 467 316 1561 1555
4760 12 1436 316 1561 1555
4761 4 352 349 375 376
4762 2 72 352 349 350
4763 3 72 352 349 375
4764 1 77 352 349 375
4765 6 376 375 349 350
4766 4 380 375 349 350
4767 5 380 375 349 352
4768 3 72 380 375 349
4769 2 72 380 375 376
4770 1 86 380 375 349
4771 12 507 387 404 399
4772 12 1490 387 404 399
4773 12 1589 387 404 399
4774 11 507 387 404 1415
4775 11 1490 387 404 1415
4776 11 1589 387 404 1415
4777 11 404 387 507 473
4778 11 1490 387 507 473
4779 11 1589 387 507 473
4780 12 404 387 507 502
4781 12 1490 387 507 502
4782 12 1589 387 507 502
4783 11 404 387 1490 283
4784 11 507 387 1490 283
4785 11 1589 387 1490 283
4786 12 404 387 1490 1485
4787 12 507 387 1490 1485
4788 12 1589 387 1490 1485
4789 11 404 387 1589 1582
4790 11 507 387 1589 1582
4791 11 1490 387 1589 1582
4792 12 404 387 1589 1583
4793 12 507 387 1589 1583
4794 12 1490 387 1589 1583
4795 6 400 399 312 313
4796 4 404 399 312 313
4797 5 404 399 312 315
4798 1 387 404 399 312
4799 3 1415 404 399 312
4800 2 1415 404 399 400
4801 6 413 412 278 279
4802 4 417 412 278 279
4803 5 417 412 278 281
4804 3 829 417 412 278
4805 2 829 417 412 413
4806 1 950 417 412 278
4807 8 445 442 449 443
4808 10 546 442 449 443
4809 7 445 442 449 834
4810 9 546 442 449 834
4811 7 445 442 546 86
4812 9 449 442 546 86
4813 8 445 442 546 544
4814 10 449 442 546 544
4815 7 466 463 467 316
4816 9 543 463 467 316
4817 8 466 463 467 464
4818 10 543 463 467 464
4819 7 466 463 543 77
4820 9 467 463 543 77
4821 8 466 463 543 538
4822 10 467 463 543 538
4823 8 476 473 477 474
4824 10 507 473 477 474
4825 7 476 473 477 950
4826 9 507 473 477 950
4827 7 476 473 507 387
4828 9 477 473 507 387
4829 8 476 473 507 502
4830 10 477 473 507 502
4831 7 292 289 848 834
4832 9 972 289 848 834
4833 8 292 289 848 842
4834 10 972 289 848 842
4835 7 292 289 972 960
4836 9 848 289 972 960
4837 8 292 289 972 970
4838 10 848 289 972 970
4839 8 314 311 1419 1416
4840 10 1508 311 1419 1416
4841 7 314 311 1419 1420
4842 9 1508 311 1419 1420
4843 7 314 311 1508 1491
4844 9 1419 311 1508 1491
4845 8 314 311 1508 1503
4846 10 1419 311 1508 1503
4847 10 89 354 85 79
4848 9 89 354 85 86
4849 8 357 354 85 79
4850 7 357 354 85 86
4851 9 85 354 89 62
4852 10 85 354 89 87
4853 7 357 354 89 62
4854 8 357 354 89 87
4855 4 449 443 544 545
4856 2 442 449 443 444
4857 3 442 449 443 544
4858 1 834 449 443 544
4859 4 457 451 529 530
4860 2 450 457 451 452
4861 3 450 457 451 529
4862 1 1420 457 451 529
4863 4 485 479 508 509
4864 2 478 485 479 480
4865 3 478 485 479 508
4866 1 1491 485 479 508
4867 6 509 508 479 480
4868 4 510 508 479 480
4869 5 510 508 479 485
4870 3 478 510 508 479
4871 2 478 510 508 509
4872 1 960 510 508 479
4873 6 530 529 451 452
4874 4 531 529 451 452
4875 5 531 529 451 457
4876 1 62 531 529 451
4877 3 450 531 529 451
4878 2 450 531 529 530
4879 6 545 544 443 444
4880 4 546 544 443 444
4881 5 546 544 443 449
4882 1 86 546 544 443
4883 3 442 546 544 443
4884 2 442 546 544 545
4885 4 1385 1382 1516 1517
4886 2 1933 1385 1382 1383
4887 3 1933 1385 1382 1516
4888 1 1938 1385 1382 1516
4889 4 1419 1416 1503 1504
4890 2 311 1419 1416 1417
4891 3 311 1419 1416 1503
4892 1 1420 1419 1416 1503
4893 12 457 1420 332 326
4894 11 457 1420 332 1429
4895 12 1419 1420 332 326
4896 11 1419 1420 332 1429
4897 12 1571 1420 332 326
4898 11 1571 1420 332 1429
4899 11 332 1420 457 450
4900 12 332 1420 457 451
4901 11 1419 1420 457 450
4902 12 1419 1420 457 451
4903 11 1571 1420 457 450
4904 12 1571 1420 457 451
4905 11 332 1420 1419 311
4906 12 332 1420 1419 1416
4907 11 457 1420 1419 311
4908 12 457 1420 1419 1416
4909 11 1571 1420 1419 311
4910 12 1571 1420 1419 1416
4911 11 332 1420 1571 1567
4912 11 457 1420 1571 1567
4913 11 1419 1420 1571 1567
4914 12 332 1420 1571 1568
4915 12 457 1420 1571 1568
4916 12 1419 1420 1571 1568
4917 4 1456 1453 1479 1480
4918 2 1176 1456 1453 1454
4919 3 1176 1456 1453 1479
4920 1 1181 1456 1453 1479
4921 6 1480 1479 1453 1454
4922 4 1484 1479 1453 1454
4923 5 1484 1479 1453 1456
4924 3 1176 1484 1479 1453
4925 2 1176 1484 1479 1480
4926 1 1190 1484 1479 1453
4927 12 485 1491 386 381
4928 11 485 1491 386 1387
4929 12 1508 1491 386 381
4930 11 1508 1491 386 1387
4931 12 1611 1491 386 381
4932 11 1611 1491 386 1387
4933 11 386 1491 485 478
4934 12 386 1491 485 479
4935 11 1508 1491 485 478
4936 12 1508 1491 485 479
4937 11 1611 1491 485 478
4938 12 1611 1491 485 479
4939 11 386 1491 1508 311
4940 11 485 1491 1508 311
4941 11 1611 1491 1508 311
4942 12 386 1491 1508 1503
4943 12 485 1491 1508 1503
4944 12 1611 1491 1508 1503
4945 11 386 1491 1611 1577
4946 11 485 1491 1611 1577
4947 11 1508 1491 1611 1577
4948 12 386 1491 1611 1606
4949 12 485 1491 1611 1606
4950 12 1508 1491 1611 1606
4951 6 1504 1503 1416 1417
4952 4 1508 1503 1416 1417
4953 5 1508 1503 1416 1419
4954 3 311 1508 1503 1416
4955 2 311 1508 1503 1504
4956 1 1491 1508 1503 1416
4957 6 1517 1516 1382 1383
4958 4 1521 1516 1382 1383
4959 5 1521 1516 1382 1385
4960 3 1933 1521 1516 1382
4961 2 1933 1521 1516 1517
4962 1 2054 1521 1516 1382
4963 8 1549 1546 1553 1547
4964 10 1650 1546 1553 1547
4965 7 1549 1546 1553 1938
4966 9 1650 1546 1553 1938
4967 7 1549 1546 1650 1190
4968 9 1553 1546 1650 1190
4969 8 1549 1546 1650 1648
4970 10 1553 1546 1650 1648
4971 7 1570 1567 1571 1420
4972 9 1647 1567 1571 1420
4973 8 1570 1567 1571 1568
4974 10 1647 1567 1571 1568
4975 7 1570 1567 1647 1181
4976 9 1571 1567 1647 1181
4977 8 1570 1567 1647 1642
4978 10 1571 1567 1647 1642
4979 8 1580 1577 1581 1578
4980 10 1611 1577 1581 1578
4981 7 1580 1577 1581 2054
4982 9 1611 1577 1581 2054
4983 7 1580 1577 1611 1491
4984 9 1581 1577 1611 1491
4985 8 1580 1577 1611 1606
4986 10 1581 1577 1611 1606
4987 7 1396 1393 1952 1938
4988 9 2076 1393 1952 1938
4989 8 1396 1393 1952 1946
4990 10 2076 1393 1952 1946
4991 7 1396 1393 2076 2064
4992 9 1952 1393 2076 2064
4993 8 1396 1393 2076 2074
4994 10 1952 1393 2076 2074
4995 10 404 1415 315 312
4996 9 404 1415 315 316
4997 8 1418 1415 315 312
4998 7 1418 1415 315 316
4999 9 315 1415 404 387
5000 10 315 1415 404 399
5001 7 1418 1415 404 387
5002 8 1418 1415 404 399
5003 10 1193 1458 1189 1183
5004 9 1193 1458 1189 1190
5005 8 1461 1458 1189 1183
5006 7 1461 1458 1189 1190
5007 9 1189 1458 1193 1166
5008 10 1189 1458 1193 1191
5009 7 1461 1458 1193 1166
5010 8 1461 1458 1193 1191
5011 4 1553 1547 1648 1649
5012 2 1546 1553 1547 1548
5013 3 1546 1553 1547 1648
5014 1 1938 1553 1547 1648
5015 4 1561 1555 1633 1634
5016 1 316 1561 1555 1633
5017 2 1554 1561 1555 1556
5018 3 1554 1561 1555 1633
5019 4 1589 1583 1612 1613
5020 1 387 1589 1583 1612
5021 2 1582 1589 1583 1584
5022 3 1582 1589 1583 1612
5023 6 1613 1612 1583 1584
5024 4 1614 1612 1583 1584
5025 5 1614 1612 1583 1589
5026 3 1582 1614 1612 1583
5027 2 1582 1614 1612 1613
5028 1 2064 1614 1612 1583
5029 6 1634 1633 1555 1556
5030 4 1635 1633 1555 1556
5031 5 1635 1633 1555 1561
5032 1 1166 1635 1633 1555
5033 3 1554 1635 1633 1555
5034 2 1554 1635 1633 1634
5035 6 1649 1648 1547 1548
5036 4 1650 1648 1547 1548
5037 5 1650 1648 1547 1553
5038 1 1190 1650 1648 1547
5039 3 1546 1650 1648 1547
5040 2 1546 1650 1648 1649
5041 10 417 829 281 278
5042 9 417 829 281 834
5043 8 832 829 281 278
5044 7 832 829 281 834
5045 10 281 829 417 412
5046 9 281 829 417 950
5047 8 832 829 417 412
5048 7 832 829 417 950
5049 7 880 877 1988 868
5050 9 2046 877 1988 868
5051 8 880 877 1988 1982
5052 10 2046 877 1988 1982
5053 7 880 877 2046 943
5054 9 1988 877 2046 943
5055 8 880 877 2046 2044
5056 10 1988 877 2046 2044
5057 10 650 891 622 616
5058 9 650 891 622 623
5059 8 894 891 622 616
5060 7 894 891 622 623
5061 9 622 891 650 629
5062 10 622 891 650 648
5063 7 894 891 650 629
5064 8 894 891 650 648
5065 12 1050 943 963 961
5066 12 2046 943 963 961
5067 12 2172 943 963 961
5068 11 1050 943 963 1953
5069 11 2046 943 963 1953
5070 11 2172 943 963 1953
5071 11 963 943 1050 1043
5072 11 2046 943 1050 1043
5073 11 2172 943 1050 1043
5074 12 963 943 1050 1044
5075 12 2046 943 1050 1044
5076 12 2172 943 1050 1044
5077 11 963 943 2046 877
5078 11 1050 943 2046 877
5079 11 2172 943 2046 877
5080 12 963 943 2046 2044
5081 12 1050 943 2046 2044
5082 12 2172 943 2046 2044
5083 11 963 943 2172 2142
5084 11 1050 943 2172 2142
5085 11 2046 943 2172 2142
5086 12 963 943 2172 2167
5087 12 1050 943 2172 2167
5088 12 2046 943 2172 2167
5089 12 477 950 417 412
5090 11 477 950 417 829
5091 12 949 950 417 412
5092 11 949 950 417 829
5093 12 1053 950 417 412
5094 11 1053 950 417 829
5095 11 417 950 477 473
5096 12 417 950 477 474
5097 11 949 950 477 473
5098 12 949 950 477 474
5099 11 1053 950 477 473
5100 12 1053 950 477 474
5101 11 417 950 949 305
5102 12 417 950 949 944
5103 11 477 950 949 305
5104 12 477 950 949 944
5105 11 1053 950 949 305
5106 12 1053 950 949 944
5107 11 417 950 1053 1043
5108 11 477 950 1053 1043
5109 11 949 950 1053 1043
5110 12 417 950 1053 1051
5111 12 477 950 1053 1051
5112 12 949 950 1053 1051
5113 4 985 982 1069 1070
5114 1 834 985 982 1069
5115 2 981 985 982 983
5116 3 981 985 982 1069
5117 4 1019 1016 1090 1091
5118 1 868 1019 1016 1090
5119 2 1015 1019 1016 1017
5120 3 1015 1019 1016 1090
5121 4 1050 1044 1051 1052
5122 1 943 1050 1044 1051
5123 2 1043 1050 1044 1045
5124 3 1043 1050 1044 1051
5125 6 1052 1051 1044 1045
5126 4 1053 1051 1044 1045
5127 5 1053 1051 1044 1050
5128 1 950 1053 1051 1044
5129 3 1043 1053 1051 1044
5130 2 1043 1053 1051 1052
5131 6 1070 1069 982 983
5132 4 1074 1069 982 983
5133 5 1074 1069 982 985
5134 1 623 1074 1069 982
5135 3 981 1074 1069 982
5136 2 981 1074 1069 1070
5137 6 1091 1090 1016 1017
5138 4 1095 1090 1016 1017
5139 5 1095 1090 1016 1019
5140 1 629 1095 1090 1016
5141 3 1015 1095 1090 1016
5142 2 1015 1095 1090 1091
5143 12 449 834 281 278
5144 11 449 834 281 829
5145 12 848 834 281 278
5146 11 848 834 281 829
5147 12 985 834 281 278
5148 11 985 834 281 829
5149 11 281 834 449 442
5150 12 281 834 449 443
5151 11 848 834 449 442
5152 12 848 834 449 443
5153 11 985 834 449 442
5154 12 985 834 449 443
5155 11 281 834 848 289
5156 11 449 834 848 289
5157 11 985 834 848 289
5158 12 281 834 848 842
5159 12 449 834 848 842
5160 12 985 834 848 842
5161 11 281 834 985 981
5162 11 449 834 985 981
5163 11 848 834 985 981
5164 12 281 834 985 982
5165 12 449 834 985 982
5166 12 848 834 985 982
5167 4 848 842 970 971
5168 2 289 848 842 843
5169 3 289 848 842 970
5170 1 834 848 842 970
5171 4 884 878 940 941
5172 1 1972 884 878 940
5173 2 1981 884 878 879
5174 3 1981 884 878 940
5175 4 889 886 918 919
5176 2 609 889 886 887
5177 3 609 889 886 918
5178 1 614 889 886 918
5179 6 919 918 886 887
5180 4 923 918 886 887
5181 5 923 918 886 889
5182 3 609 923 918 886
5183 2 609 923 918 919
5184 1 623 923 918 886
5185 6 941 940 878 879
5186 4 942 940 878 879
5187 5 942 940 878 884
5188 3 1981 942 940 878
5189 2 1981 942 940 941
5190 1 2047 942 940 878
5191 12 510 960 407 405
5192 11 510 960 407 869
5193 12 972 960 407 405
5194 11 972 960 407 869
5195 12 1042 960 407 405
5196 11 1042 960 407 869
5197 11 407 960 510 478
5198 12 407 960 510 508
5199 11 972 960 510 478
5200 12 972 960 510 508
5201 11 1042 960 510 478
5202 12 1042 960 510 508
5203 11 407 960 972 289
5204 11 510 960 972 289
5205 11 1042 960 972 289
5206 12 407 960 972 970
5207 12 510 960 972 970
5208 12 1042 960 972 970
5209 11 407 960 1042 1038
5210 11 510 960 1042 1038
5211 11 972 960 1042 1038
5212 12 407 960 1042 1039
5213 12 510 960 1042 1039
5214 12 972 960 1042 1039
5215 6 971 970 842 843
5216 4 972 970 842 843
5217 5 972 970 842 848
5218 3 289 972 970 842
5219 2 289 972 970 971
5220 1 960 972 970 842
5221 7 984 981 985 834
5222 9 1074 981 985 834
5223 8 984 981 985 982
5224 10 1074 981 985 982
5225 7 984 981 1074 623
5226 9 985 981 1074 623
5227 8 984 981 1074 1069
5228 10 985 981 1074 1069
5229 8 1005 1002 1009 1003
5230 10 1083 1002 1009 1003
5231 7 1005 1002 1009 1972
5232 9 1083 1002 1009 1972
5233 7 1005 1002 1083 614
5234 9 1009 1002 1083 614
5235 8 1005 1002 1083 1081
5236 10 1009 1002 1083 1081
5237 7 1041 1038 1042 960
5238 9 1068 1038 1042 960
5239 8 1041 1038 1042 1039
5240 10 1068 1038 1042 1039
5241 8 1041 1038 1068 1063
5242 10 1042 1038 1068 1063
5243 7 1041 1038 1068 2047
5244 9 1042 1038 1068 2047
5245 10 1521 1933 1385 1382
5246 9 1521 1933 1385 1938
5247 8 1936 1933 1385 1382
5248 7 1936 1933 1385 1938
5249 10 1385 1933 1521 1516
5250 9 1385 1933 1521 2054
5251 8 1936 1933 1521 1516
5252 7 1936 1933 1521 2054
5253 10 942 1981 884 878
5254 9 942 1981 884 1972
5255 8 1984 1981 884 878
5256 7 1984 1981 884 1972
5257 10 884 1981 942 940
5258 9 884 1981 942 2047
5259 8 1984 1981 942 940
5260 7 1984 1981 942 2047
5261 10 1754 1995 1726 1720
5262 9 1754 1995 1726 1727
5263 8 1998 1995 1726 1720
5264 7 1998 1995 1726 1727
5265 9 1726 1995 1754 1733
5266 10 1726 1995 1754 1752
5267 7 1998 1995 1754 1733
5268 8 1998 1995 1754 1752
5269 12 1068 2047 942 940
5270 11 1068 2047 942 1981
5271 12 2067 2047 942 940
5272 11 2067 2047 942 1981
5273 12 2154 2047 942 940
5274 11 2154 2047 942 1981
5275 11 942 2047 1068 1038
5276 12 942 2047 1068 1063
5277 11 2067 2047 1068 1038
5278 12 2067 2047 1068 1063
5279 11 2154 2047 1068 1038
5280 12 2154 2047 1068 1063
5281 11 942 2047 2067 849
5282 11 1068 2047 2067 849
5283 11 2154 2047 2067 849
5284 12 942 2047 2067 2065
5285 12 1068 2047 2067 2065
5286 12 2154 2047 2067 2065
5287 11 942 2047 2154 2147
5288 11 1068 2047 2154 2147
5289 11 2067 2047 2154 2147
5290 12 942 2047 2154 2148
5291 12 1068 2047 2154 2148
5292 12 2067 2047 2154 2148
5293 12 1581 2054 1521 1516
5294 11 1581 2054 1521 1933
5295 12 2053 2054 1521 1516
5296 11 2053 2054 1521 1933
5297 12 2157 2054 1521 1516
5298 11 2157 2054 1521 1933
5299 11 1521 2054 1581 1577
5300 12 1521 2054 1581 1578
5301 11 2053 2054 1581 1577
5302 12 2053 2054 1581 1578
5303 11 2157 2054 1581 1577
5304 12 2157 2054 1581 1578
5305 11 1521 2054 2053 1409
5306 12 1521 2054 2053 2048
5307 11 1581 2054 2053 1409
5308 12 1581 2054 2053 2048
5309 11 2157 2054 2053 1409
5310 12 2157 2054 2053 2048
5311 11 1521 2054 2157 2147
5312 11 1581 2054 2157 2147
5313 11 2053 2054 2157 2147
5314 12 1521 2054 2157 2155
5315 12 1581 2054 2157 2155
5316 12 2053 2054 2157 2155
5317 4 2089 2086 2173 2174
5318 1 1938 2089 2086 2173
5319 2 2085 2089 2086 2087
5320 3 2085 2089 2086 2173
5321 4 2123 2120 2194 2195
5322 1 1972 2123 2120 2194
5323 2 2119 2123 2120 2121
5324 3 2119 2123 2120 2194
5325 4 2154 2148 2155 2156
5326 1 2047 2154 2148 2155
5327 2 2147 2154 2148 2149
5328 3 2147 2154 2148 2155
5329 6 2156 2155 2148 2149
5330 4 2157 2155 2148 2149
5331 5 2157 2155 2148 2154
5332 1 2054 2157 2155 2148
5333 3 2147 2157 2155 2148
5334 2 2147 2157 2155 2156
5335 6 2174 2173 2086 2087
5336 4 2178 2173 2086 2087
5337 5 2178 2173 2086 2089
5338 1 1727 2178 2173 2086
5339 3 2085 2178 2173 2086
5340 2 2085 2178 2173 2174
5341 6 2195 2194 2120 2121
5342 4 2199 2194 2120 2121
5343 5 2199 2194 2120 2123
5344 1 1733 2199 2194 2120
5345 3 2119 2199 2194 2120
5346 2 2119 2199 2194 2195
5347 12 1553 1938 1385 1382
5348 11 1553 1938 1385 1933
5349 12 1952 1938 1385 1382
5350 11 1952 1938 1385 1933
5351 12 2089 1938 1385 1382
5352 11 2089 1938 1385 1933
5353 11 1385 1938 1553 1546
5354 12 1385 1938 1553 1547
5355 11 1952 1938 1553 1546
5356 12 1952 1938 1553 1547
5357 11 2089 1938 1553 1546
5358 12 2089 1938 1553 1547
5359 11 1385 1938 1952 1393
5360 11 1553 1938 1952 1393
5361 11 2089 1938 1952 1393
5362 12 1385 1938 1952 1946
5363 12 1553 1938 1952 1946
5364 12 2089 1938 1952 1946
5365 11 1385 1938 2089 2085
5366 11 1553 1938 2089 2085
5367 11 1952 1938 2089 2085
5368 12 1385 1938 2089 2086
5369 12 1553 1938 2089 2086
5370 12 1952 1938 2089 2086
5371 4 1952 1946 2074 2075
5372 2 1393 1952 1946 1947
5373 3 1393 1952 1946 2074
5374 1 1938 1952 1946 2074
5375 4 1988 1982 2044 2045
5376 1 868 1988 1982 2044
5377 2 877 1988 1982 1983
5378 3 877 1988 1982 2044
5379 4 1993 1990 2022 2023
5380 2 1713 1993 1990 1991
5381 3 1713 1993 1990 2022
5382 1 1718 1993 1990 2022
5383 6 2023 2022 1990 1991
5384 4 2027 2022 1990 1991
5385 5 2027 2022 1990 1993
5386 3 1713 2027 2022 1990
5387 2 1713 2027 2022 2023
5388 1 1727 2027 2022 1990
5389 6 2045 2044 1982 1983
5390 4 2046 2044 1982 1983
5391 5 2046 2044 1982 1988
5392 3 877 2046 2044 1982
5393 2 877 2046 2044 2045
5394 1 943 2046 2044 1982
5395 12 1614 2064 1511 1509
5396 11 1614 2064 1511 1973
5397 12 2076 2064 1511 1509
5398 11 2076 2064 1511 1973
5399 12 2146 2064 1511 1509
5400 11 2146 2064 1511 1973
5401 11 1511 2064 1614 1582
5402 12 1511 2064 1614 1612
5403 11 2076 2064 1614 1582
5404 12 2076 2064 1614 1612
5405 11 2146 2064 1614 1582
5406 12 2146 2064 1614 1612
5407 11 1511 2064 2076 1393
5408 11 1614 2064 2076 1393
5409 11 2146 2064 2076 1393
5410 12 1511 2064 2076 2074
5411 12 1614 2064 2076 2074
5412 12 2146 2064 2076 2074
5413 11 1511 2064 2146 2142
5414 11 1614 2064 2146 2142
5415 11 2076 2064 2146 2142
5416 12 1511 2064 2146 2143
5417 12 1614 2064 2146 2143
5418 12 2076 2064 2146 2143
5419 6 2075 2074 1946 1947
5420 4 2076 2074 1946 1947
5421 5 2076 2074 1946 1952
5422 3 1393 2076 2074 1946
5423 2 1393 2076 2074 2075
5424 1 2064 2076 2074 1946
5425 7 2088 2085 2089 1938
5426 9 2178 2085 2089 1938
5427 8 2088 2085 2089 2086
5428 10 2178 2085 2089 2086
5429 7 2088 2085 2178 1727
5430 9 2089 2085 2178 1727
5431 8 2088 2085 2178 2173
5432 10 2089 2085 2178 2173
5433 7 2109 2106 2113 868
5434 9 2187 2106 2113 868
5435 8 2109 2106 2113 2107
5436 10 2187 2106 2113 2107
5437 7 2109 2106 2187 1718
5438 9 2113 2106 2187 1718
5439 8 2109 2106 2187 2185
5440 10 2113 2106 2187 2185
5441 7 2145 2142 2146 2064
5442 9 2172 2142 2146 2064
5443 8 2145 2142 2146 2143
5444 10 2172 2142 2146 2143
5445 7 2145 2142 2172 943
5446 9 2146 2142 2172 943
5447 8 2145 2142 2172 2167
5448 10 2146 2142 2172 2167
5449 4 833 830 964 965
5450 2 277 833 830 831
5451 3 277 833 830 964
5452 1 282 833 830 964
5453 4 867 864 951 952
5454 1 868 867 864 951
5455 2 1967 867 864 865
5456 3 1967 867 864 951
5457 12 1019 868 867 864
5458 11 1019 868 867 1967
5459 12 1988 868 867 864
5460 11 1988 868 867 1967
5461 12 2113 868 867 864
5462 11 2113 868 867 1967
5463 11 867 868 1019 1015
5464 11 1988 868 1019 1015
5465 11 2113 868 1019 1015
5466 12 867 868 1019 1016
5467 12 1988 868 1019 1016
5468 12 2113 868 1019 1016
5469 11 867 868 1988 877
5470 11 1019 868 1988 877
5471 11 2113 868 1988 877
5472 12 867 868 1988 1982
5473 12 1019 868 1988 1982
5474 12 2113 868 1988 1982
5475 11 867 868 2113 2106
5476 11 1019 868 2113 2106
5477 11 1988 868 2113 2106
5478 12 867 868 2113 2107
5479 12 1019 868 2113 2107
5480 12 1988 868 2113 2107
5481 4 904 901 927 928
5482 2 624 904 901 902
5483 3 624 904 901 927
5484 1 629 904 901 927
5485 6 928 927 901 902
5486 4 932 927 901 902
5487 5 932 927 901 904
5488 3 624 932 927 901
5489 2 624 932 927 928
5490 1 638 932 927 901
5491 12 1059 939 956 951
5492 12 2042 939 956 951
5493 12 2141 939 956 951
5494 11 1059 939 956 1967
5495 11 2042 939 956 1967
5496 11 2141 939 956 1967
5497 11 956 939 1059 1025
5498 11 2042 939 1059 1025
5499 11 2141 939 1059 1025
5500 12 956 939 1059 1054
5501 12 2042 939 1059 1054
5502 12 2141 939 1059 1054
5503 11 956 939 2042 835
5504 11 1059 939 2042 835
5505 11 2141 939 2042 835
5506 12 956 939 2042 2037
5507 12 1059 939 2042 2037
5508 12 2141 939 2042 2037
5509 11 956 939 2141 2134
5510 11 1059 939 2141 2134
5511 11 2042 939 2141 2134
5512 12 956 939 2141 2135
5513 12 1059 939 2141 2135
5514 12 2042 939 2141 2135
5515 6 952 951 864 865
5516 4 956 951 864 865
5517 5 956 951 864 867
5518 1 939 956 951 864
5519 3 1967 956 951 864
5520 2 1967 956 951 952
5521 6 965 964 830 831
5522 4 969 964 830 831
5523 5 969 964 830 833
5524 3 277 969 964 830
5525 2 277 969 964 965
5526 1 398 969 964 830
5527 7 997 994 1001 282
5528 9 1098 994 1001 282
5529 8 997 994 1001 995
5530 10 1098 994 1001 995
5531 7 997 994 1098 638
5532 9 1001 994 1098 638
5533 8 997 994 1098 1096
5534 10 1001 994 1098 1096
5535 7 1018 1015 1019 868
5536 9 1095 1015 1019 868
5537 8 1018 1015 1019 1016
5538 10 1095 1015 1019 1016
5539 7 1018 1015 1095 629
5540 9 1019 1015 1095 629
5541 8 1018 1015 1095 1090
5542 10 1019 1015 1095 1090
5543 7 1028 1025 1029 398
5544 9 1059 1025 1029 398
5545 8 1028 1025 1029 1026
5546 10 1059 1025 1029 1026
5547 7 1028 1025 1059 939
5548 9 1029 1025 1059 939
5549 8 1028 1025 1059 1054
5550 10 1029 1025 1059 1054
5551 9 420 841 296 282
5552 10 420 841 296 290
5553 7 844 841 296 282
5554 8 844 841 296 290
5555 9 296 841 420 408
5556 10 296 841 420 418
5557 7 844 841 420 408
5558 8 844 841 420 418
5559 8 866 863 1971 1968
5560 10 2060 863 1971 1968
5561 7 866 863 1971 1972
5562 9 2060 863 1971 1972
5563 7 866 863 2060 2043
5564 9 1971 863 2060 2043
5565 8 866 863 2060 2055
5566 10 1971 863 2060 2055
5567 10 641 906 637 631
5568 9 641 906 637 638
5569 8 909 906 637 631
5570 7 909 906 637 638
5571 9 637 906 641 614
5572 10 637 906 641 639
5573 7 909 906 641 614
5574 8 909 906 641 639
5575 4 1001 995 1096 1097
5576 1 282 1001 995 1096
5577 2 994 1001 995 996
5578 3 994 1001 995 1096
5579 4 1009 1003 1081 1082
5580 2 1002 1009 1003 1004
5581 3 1002 1009 1003 1081
5582 1 1972 1009 1003 1081
5583 4 1037 1031 1060 1061
5584 2 1030 1037 1031 1032
5585 3 1030 1037 1031 1060
5586 1 2043 1037 1031 1060
5587 6 1061 1060 1031 1032
5588 4 1062 1060 1031 1032
5589 5 1062 1060 1031 1037
5590 1 408 1062 1060 1031
5591 3 1030 1062 1060 1031
5592 2 1030 1062 1060 1061
5593 6 1082 1081 1003 1004
5594 4 1083 1081 1003 1004
5595 5 1083 1081 1003 1009
5596 1 614 1083 1081 1003
5597 3 1002 1083 1081 1003
5598 2 1002 1083 1081 1082
5599 6 1097 1096 995 996
5600 4 1098 1096 995 996
5601 5 1098 1096 995 1001
5602 1 638 1098 1096 995
5603 3 994 1098 1096 995
5604 2 994 1098 1096 1097
5605 4 1937 1934 2068 2069
5606 2 1381 1937 1934 1935
5607 3 1381 1937 1934 2068
5608 1 1386 1937 1934 2068
5609 4 1971 1968 2055 2056
5610 2 863 1971 1968 1969
5611 3 863 1971 1968 2055
5612 1 1972 1971 1968 2055
5613 12 1009 1972 884 878
5614 11 1009 1972 884 1981
5615 12 1971 1972 884 878
5616 11 1971 1972 884 1981
5617 12 2123 1972 884 878
5618 11 2123 1972 884 1981
5619 11 884 1972 1009 1002
5620 12 884 1972 1009 1003
5621 11 1971 1972 1009 1002
5622 12 1971 1972 1009 1003
5623 11 2123 1972 1009 1002
5624 12 2123 1972 1009 1003
5625 11 884 1972 1971 863
5626 12 884 1972 1971 1968
5627 11 1009 1972 1971 863
5628 12 1009 1972 1971 1968
5629 11 2123 1972 1971 863
5630 12 2123 1972 1971 1968
5631 11 884 1972 2123 2119
5632 11 1009 1972 2123 2119
5633 11 1971 1972 2123 2119
5634 12 884 1972 2123 2120
5635 12 1009 1972 2123 2120
5636 12 1971 1972 2123 2120
5637 4 2008 2005 2031 2032
5638 2 1728 2008 2005 2006
5639 3 1728 2008 2005 2031
5640 1 1733 2008 2005 2031
5641 6 2032 2031 2005 2006
5642 4 2036 2031 2005 2006
5643 5 2036 2031 2005 2008
5644 3 1728 2036 2031 2005
5645 2 1728 2036 2031 2032
5646 1 1742 2036 2031 2005
5647 12 1037 2043 938 933
5648 11 1037 2043 938 1939
5649 12 2060 2043 938 933
5650 11 2060 2043 938 1939
5651 12 2163 2043 938 933
5652 11 2163 2043 938 1939
5653 11 938 2043 1037 1030
5654 12 938 2043 1037 1031
5655 11 2060 2043 1037 1030
5656 12 2060 2043 1037 1031
5657 11 2163 2043 1037 1030
5658 12 2163 2043 1037 1031
5659 11 938 2043 2060 863
5660 11 1037 2043 2060 863
5661 11 2163 2043 2060 863
5662 12 938 2043 2060 2055
5663 12 1037 2043 2060 2055
5664 12 2163 2043 2060 2055
5665 11 938 2043 2163 2129
5666 11 1037 2043 2163 2129
5667 11 2060 2043 2163 2129
5668 12 938 2043 2163 2158
5669 12 1037 2043 2163 2158
5670 12 2060 2043 2163 2158
5671 6 2056 2055 1968 1969
5672 4 2060 2055 1968 1969
5673 5 2060 2055 1968 1971
5674 3 863 2060 2055 1968
5675 2 863 2060 2055 2056
5676 1 2043 2060 2055 1968
5677 6 2069 2068 1934 1935
5678 4 2073 2068 1934 1935
5679 5 2073 2068 1934 1937
5680 3 1381 2073 2068 1934
5681 2 1381 2073 2068 2069
5682 1 1502 2073 2068 1934
5683 7 2101 2098 2105 1386
5684 9 2202 2098 2105 1386
5685 8 2101 2098 2105 2099
5686 10 2202 2098 2105 2099
5687 7 2101 2098 2202 1742
5688 9 2105 2098 2202 1742
5689 8 2101 2098 2202 2200
5690 10 2105 2098 2202 2200
5691 7 2122 2119 2123 1972
5692 9 2199 2119 2123 1972
5693 8 2122 2119 2123 2120
5694 10 2199 2119 2123 2120
5695 7 2122 2119 2199 1733
5696 9 2123 2119 2199 1733
5697 8 2122 2119 2199 2194
5698 10 2123 2119 2199 2194
5699 7 2132 2129 2133 1502
5700 9 2163 2129 2133 1502
5701 8 2132 2129 2133 2130
5702 10 2163 2129 2133 2130
5703 7 2132 2129 2163 2043
5704 9 2133 2129 2163 2043
5705 8 2132 2129 2163 2158
5706 10 2133 2129 2163 2158
5707 9 1524 1945 1400 1386
5708 10 1524 1945 1400 1394
5709 7 1948 1945 1400 1386
5710 8 1948 1945 1400 1394
5711 9 1400 1945 1524 1512
5712 10 1400 1945 1524 1522
5713 7 1948 1945 1524 1512
5714 8 1948 1945 1524 1522
5715 10 956 1967 867 864
5716 9 956 1967 867 868
5717 8 1970 1967 867 864
5718 7 1970 1967 867 868
5719 9 867 1967 956 939
5720 10 867 1967 956 951
5721 7 1970 1967 956 939
5722 8 1970 1967 956 951
5723 10 1745 2010 1741 1735
5724 9 1745 2010 1741 1742
5725 8 2013 2010 1741 1735
5726 7 2013 2010 1741 1742
5727 9 1741 2010 1745 1718
5728 10 1741 2010 1745 1743
5729 7 2013 2010 1745 1718
5730 8 2013 2010 1745 1743
5731 4 2105 2099 2200 2201
5732 1 1386 2105 2099 2200
5733 2 2098 2105 2099 2100
5734 3 2098 2105 2099 2200
5735 4 2113 2107 2185 2186
5736 1 868 2113 2107 2185
5737 2 2106 2113 2107 2108
5738 3 2106 2113 2107 2185
5739 4 2141 2135 2164 2165
5740 1 939 2141 2135 2164
5741 2 2134 2141 2135 2136
5742 3 2134 2141 2135 2164
5743 6 2165 2164 2135 2136
5744 4 2166 2164 2135 2136
5745 5 2166 2164 2135 2141
5746 1 1512 2166 2164 2135
5747 3 2134 2166 2164 2135
5748 2 2134 2166 2164 2165
5749 6 2186 2185 2107 2108
5750 4 2187 2185 2107 2108
5751 5 2187 2185 2107 2113
5752 1 1718 2187 2185 2107
5753 3 2106 2187 2185 2107
5754 2 2106 2187 2185 2186
5755 6 2201 2200 2099 2100
5756 4 2202 2200 2099 2100
5757 5 2202 2200 2099 2105
5758 1 1742 2202 2200 2099
5759 3 2098 2202 2200 2099
5760 2 2098 2202 2200 2201

Impropers

1 2 28 22 133 23
2 2 33 30 116 31
3 2 70 64 96 65
4 2 98 96 64 97
5 2 121 116 30 117
6 2 135 133 22 134
7 1 165 158 276 161
8 1 186 182 261 185
9 1 222 215 225 218
10 1 1132 21 1239 24
11 1 600 41 683 44
12 1 337 57 371 60
13 2 152 146 271 147
14 2 186 183 256 184
15 2 214 211 235 212
16 2 240 235 211 236
17 2 261 256 183 257
18 2 273 271 146 272
19 2 1132 1126 1237 1127
20 2 1137 1134 1220 1135
21 2 1174 1168 1200 1169
22 2 1202 1200 1168 1201
23 2 1225 1220 1134 1221
24 2 1239 1237 1126 1238
25 1 1269 1262 1380 1265
26 1 1290 1286 1365 1289
27 1 1326 1319 1329 1322
28 1 28 1125 135 1128
29 1 1704 1145 1787 1148
30 1 1441 1161 1475 1164
31 2 1256 1250 1375 1251
32 2 1290 1287 1360 1288
33 2 1318 1315 1339 1316
34 2 1344 1339 1315 1340
35 2 1365 1360 1287 1361
36 2 1377 1375 1250 1376
37 1 1115 7 1214 10
38 1 585 29 673 32
39 1 352 72 380 75
40 2 165 159 274 160
41 2 196 193 247 194
42 2 201 198 226 199
43 2 231 226 198 227
44 2 252 247 193 248
45 2 276 274 159 275
46 2 11 8 105 9
47 2 48 42 129 43
48 2 85 79 87 80
49 2 89 87 79 88
50 2 110 105 8 106
51 2 131 129 42 130
52 1 152 145 273 148
53 1 196 192 252 195
54 1 209 202 234 205
55 1 11 1111 110 1114
56 1 1689 1133 1777 1136
57 1 1456 1176 1484 1179
58 2 1269 1263 1378 1264
59 2 1300 1297 1351 1298
60 2 1305 1302 1330 1303
61 2 1335 1330 1302 1331
62 2 1356 1351 1297 1352
63 2 1380 1378 1263 1379
64 2 1115 1112 1209 1113
65 2 1152 1146 1233 1147
66 2 1189 1183 1191 1184
67 2 1193 1191 1183 1192
68 2 1214 1209 1112 1210
69 2 1235 1233 1146 1234
70 1 1256 1249 1377 1252
71 1 1300 1296 1356 1299
72 1 1313 1306 1338 1309
73 2 580 574 685 575
74 2 585 582 668 583
75 2 622 616 648 617
76 2 650 648 616 649
77 2 673 668 582 669
78 2 687 685 574 686
79 1 717 710 828 713
80 1 738 734 813 737
81 1 774 767 777 770
82 1 1684 573 1791 576
83 1 48 593 131 596
84 1 889 609 923 612
85 2 704 698 823 699
86 2 738 735 808 736
87 2 766 763 787 764
88 2 792 787 763 788
89 2 813 808 735 809
90 2 825 823 698 824
91 2 1684 1678 1789 1679
92 2 1689 1686 1772 1687
93 2 1726 1720 1752 1721
94 2 1754 1752 1720 1753
95 2 1777 1772 1686 1773
96 2 1791 1789 1678 1790
97 1 1821 1814 1932 1817
98 1 1842 1838 1917 1841
99 1 1878 1871 1881 1874
100 1 580 1677 687 1680
101 1 1152 1697 1235 1700
102 1 1993 1713 2027 1716
103 2 1808 1802 1927 1803
104 2 1842 1839 1912 1840
105 2 1870 1867 1891 1868
106 2 1896 1891 1867 1892
107 2 1917 1912 1839 1913
108 2 1929 1927 1802 1928
109 1 1667 559 1766 562
110 1 33 581 121 584
111 1 904 624 932 627
112 2 717 711 826 712
113 2 748 745 799 746
114 2 753 750 778 751
115 2 783 778 750 779
116 2 804 799 745 800
117 2 828 826 711 827
118 2 563 560 657 561
119 2 600 594 681 595
120 2 637 631 639 632
121 2 641 639 631 640
122 2 662 657 560 658
123 2 683 681 594 682
124 1 704 697 825 700
125 1 748 744 804 747
126 1 761 754 786 757
127 1 563 1663 662 1666
128 1 1137 1685 1225 1688
129 1 2008 1728 2036 1731
130 2 1821 1815 1930 1816
131 2 1852 1849 1903 1850
132 2 1857 1854 1882 1855
133 2 1887 1882 1854 1883
134 2 1908 1903 1849 1904
135 2 1932 1930 1815 1931
136 2 1667 1664 1761 1665
137 2 1704 1698 1785 1699
138 2 1741 1735 1743 1736
139 2 1745 1743 1735 1744
140 2 1766 1761 1664 1762
141 2 1787 1785 1698 1786
142 1 1808 1801 1929 1804
143 1 1852 1848 1908 1851
144 1 1865 1858 1890 1861
145 1 557 1 693 4
146 1 1160 49 1218 52
147 1 346 63 374 66
148 2 157 154 241 155
149 2 191 188 262 189
150 2 222 216 223 217
151 2 225 223 216 224
152 2 246 241 154 242
153 2 267 262 188 263
154 2 20 14 142 15
155 2 56 50 112 51
156 2 61 58 90 59
157 2 95 90 58 91
158 2 114 112 50 113
159 2 144 142 14 143
160 1 157 153 246 156
161 1 181 174 255 177
162 1 214 210 240 213
163 1 1661 1105 1797 1108
164 1 56 1153 114 1156
165 1 1450 1167 1478 1170
166 2 1261 1258 1345 1259
167 2 1295 1292 1366 1293
168 2 1326 1320 1327 1321
169 2 1329 1327 1320 1328
170 2 1350 1345 1258 1346
171 2 1371 1366 1292 1367
172 2 1124 1118 1246 1119
173 2 1160 1154 1216 1155
174 2 1165 1162 1194 1163
175 2 1199 1194 1162 1195
176 2 1218 1216 1154 1217
177 2 1248 1246 1118 1247
178 1 1261 1257 1350 1260
179 1 1285 1278 1359 1281
180 1 1318 1314 1344 1317
181 2 5 2 136 3
182 2 39 36 123 37
183 2 76 73 99 74
184 2 104 99 73 100
185 2 128 123 36 124
186 2 141 136 2 137
187 1 173 166 270 169
188 1 191 187 267 190
189 1 201 197 231 200
190 1 572 13 696 16
191 1 1143 35 1232 38
192 1 361 78 365 81
193 2 173 167 268 168
194 2 181 175 253 176
195 2 209 203 232 204
196 2 234 232 203 233
197 2 255 253 175 254
198 2 270 268 167 269
199 2 1109 1106 1240 1107
200 2 1143 1140 1227 1141
201 2 1180 1177 1203 1178
202 2 1208 1203 1177 1204
203 2 1232 1227 1140 1228
204 2 1245 1240 1106 1241
205 1 1277 1270 1374 1273
206 1 1295 1291 1371 1294
207 1 1305 1301 1335 1304
208 1 1676 1117 1800 1120
209 1 39 1139 128 1142
210 1 1465 1182 1469 1185
211 2 1277 1271 1372 1272
212 2 1285 1279 1357 1280
213 2 1313 1307 1336 1308
214 2 1338 1336 1307 1337
215 2 1359 1357 1279 1358
216 2 1374 1372 1271 1373
217 1 5 553 141 556
218 1 1712 601 1770 604
219 1 898 615 926 618
220 2 709 706 793 707
221 2 743 740 814 741
222 2 774 768 775 769
223 2 777 775 768 776
224 2 798 793 706 794
225 2 819 814 740 815
226 2 572 566 694 567
227 2 608 602 664 603
228 2 613 610 642 611
229 2 647 642 610 643
230 2 666 664 602 665
231 2 696 694 566 695
232 1 709 705 798 708
233 1 733 726 807 729
234 1 766 762 792 765
235 1 1109 1657 1245 1660
236 1 608 1705 666 1708
237 1 2002 1719 2030 1722
238 2 1813 1810 1897 1811
239 2 1847 1844 1918 1845
240 2 1878 1872 1879 1873
241 2 1881 1879 1872 1880
242 2 1902 1897 1810 1898
243 2 1923 1918 1844 1919
244 2 1676 1670 1798 1671
245 2 1712 1706 1768 1707
246 2 1717 1714 1746 1715
247 2 1751 1746 1714 1747
248 2 1770 1768 1706 1769
249 2 1800 1798 1670 1799
250 1 1813 1809 1902 1812
251 1 1837 1830 1911 1833
252 1 1870 1866 1896 1869
253 2 557 554 688 555
254 2 591 588 675 589
255 2 628 625 651 626
256 2 656 651 625 652
257 2 680 675 588 676
258 2 693 688 554 689
259 1 725 718 822 721
260 1 743 739 819 742
261 1 753 749 783 752
262 1 20 565 144 568
263 1 1695 587 1784 590
264 1 913 630 917 633
265 2 725 719 820 720
266 2 733 727 805 728
267 2 761 755 784 756
268 2 786 784 755 785
269 2 807 805 727 806
270 2 822 820 719 821
271 2 1661 1658 1792 1659
272 2 1695 1692 1779 1693
273 2 1732 1729 1755 1730
274 2 1760 1755 1729 1756
275 2 1784 1779 1692 1780
276 2 1797 1792 1658 1793
277 1 1829 1822 1926 1825
278 1 1847 1843 1923 1846
279 1 1857 1853 1887 1856
280 1 1124 1669 1248 1672
281 1 591 1691 680 1694
282 1 2017 1734 2021 1737
283 2 1829 1823 1924 1824
284 2 1837 1831 1909 1832
285 2 1865 1859 1888 1860
286 2 1890 1888 1859 1889
287 2 1911 1909 1831 1910
288 2 1926 1924 1823 1925
289 2 304 298 409 299
290 2 309 306 392 307
291 2 346 340 372 341
292 2 374 372 340 373
293 2 397 392 306 393
294 2 411 409 298 410
295 1 441 434 552 437
296 1 462 458 537 461
297 1 498 491 501 494
298 1 1408 297 1515 300
299 1 876 317 959 320
300 1 61 333 95 336
301 2 428 422 547 423
302 2 462 459 532 460
303 2 490 487 511 488
304 2 516 511 487 512
305 2 537 532 459 533
306 2 549 547 422 548
307 2 1408 1402 1513 1403
308 2 1413 1410 1496 1411
309 2 1450 1444 1476 1445
310 2 1478 1476 1444 1477
311 2 1501 1496 1410 1497
312 2 1515 1513 1402 1514
313 1 1545 1538 1656 1541
314 1 1566 1562 1641 1565
315 1 1602 1595 1605 1598
316 1 304 1401 411 1404
317 1 1980 1421 2063 1424
318 1 1165 1437 1199 1440
319 2 1532 1526 1651 1527
320 2 1566 1563 1636 1564
321 2 1594 1591 1615 1592
322 2 1620 1615 1591 1616
323 2 1641 1636 1563 1637
324 2 1653 1651 1526 1652
325 1 1391 283 1490 286
326 1 861 305 949 308
327 1 76 348 104 351
328 2 441 435 550 436
329 2 472 469 523 470
330 2 477 474 502 475
331 2 507 502 474 503
332 2 528 523 469 524
333 2 552 550 435 551
334 2 287 284 381 285
335 2 324 318 405 319
336 2 361 355 363 356
337 2 365 363 355 364
338 2 386 381 284 382
339 2 407 405 318 406
340 1 428 421 549 424
341 1 472 468 528 471
342 1 485 478 510 481
343 1 287 1387 386 1390
344 1 1965 1409 2053 1412
345 1 1180 1452 1208 1455
346 2 1545 1539 1654 1540
347 2 1576 1573 1627 1574
348 2 1581 1578 1606 1579
349 2 1611 1606 1578 1607
350 2 1632 1627 1573 1628
351 2 1656 1654 1539 1655
352 2 1391 1388 1485 1389
353 2 1428 1422 1509 1423
354 2 1465 1459 1467 1460
355 2 1469 1467 1459 1468
356 2 1490 1485 1388 1486
357 2 1511 1509 1422 1510
358 1 1532 1525 1653 1528
359 1 1576 1572 1632 1575
360 1 1589 1582 1614 1585
361 2 856 850 961 851
362 2 861 858 944 859
363 2 898 892 924 893
364 2 926 924 892 925
365 2 949 944 858 945
366 2 963 961 850 962
367 1 993 986 1104 989
368 1 1014 1010 1089 1013
369 1 1050 1043 1053 1046
370 1 1960 849 2067 852
371 1 324 869 407 872
372 1 613 885 647 888
373 2 980 974 1099 975
374 2 1014 1011 1084 1012
375 2 1042 1039 1063 1040
376 2 1068 1063 1039 1064
377 2 1089 1084 1011 1085
378 2 1101 1099 974 1100
379 2 1960 1954 2065 1955
380 2 1965 1962 2048 1963
381 2 2002 1996 2028 1997
382 2 2030 2028 1996 2029
383 2 2053 2048 1962 2049
384 2 2067 2065 1954 2066
385 1 2097 2090 2208 2093
386 1 2118 2114 2193 2117
387 1 2154 2147 2157 2150
388 1 856 1953 963 1956
389 1 1428 1973 1511 1976
390 1 1717 1989 1751 1992
391 2 2084 2078 2203 2079
392 2 2118 2115 2188 2116
393 2 2146 2143 2167 2144
394 2 2172 2167 2143 2168
395 2 2193 2188 2115 2189
396 2 2205 2203 2078 2204
397 1 1943 835 2042 838
398 1 309 857 397 860
399 1 628 900 656 903
400 2 993 987 1102 988
401 2 1024 1021 1075 1022
402 2 1029 1026 1054 1027
403 2 1059 1054 1026 1055
404 2 1080 1075 1021 1076
405 2 1104 1102 987 1103
406 2 839 836 933 837
407 2 876 870 957 871
408 2 913 907 915 908
409 2 917 915 907 916
410 2 938 933 836 934
411 2 959 957 870 958
412 1 980 973 1101 976
413 1 1024 1020 1080 1023
414 1 1037 1030 1062 1033
415 1 839 1939 938 1942
416 1 1413 1961 1501 1964
417 1 1732 2004 1760 2007
418 2 2097 2091 2206 2092
419 2 2128 2125 2179 2126
420 2 2133 2130 2158 2131
421 2 2163 2158 2130 2159
422 2 2184 2179 2125 2180
423 2 2208 2206 2091 2207
424 2 1943 1940 2037 1941
425 2 1980 1974 2061 1975
426 2 2017 2011 2019 2012
427 2 2021 2019 2011 2020
428 2 2042 2037 1940 2038
429 2 2063 2061 1974 2062
430 1 2084 2077 2205 2080
431 1 2128 2124 2184 2127
432 1 2141 2134 2166 2137
433 1 833 277 969 280
434 1 1436 325 1494 328
435 1 70 339 98 342
436 2 433 430 517 431
437 2 467 464 538 465
438 2 498 492 499 493
439 2 501 499 492 500
440 2 522 517 430 518
441 2 543 538 464 539
442 2 296 290 418 291
443 2 332 326 388 327
444 2 337 334 366 335
445 2 371 366 334 367
446 2 390 388 326 389
447 2 420 418 290 419
448 1 433 429 522 432
449 1 457 450 531 453
450 1 490 486 516 489
451 1 1937 1381 2073 1384
452 1 332 1429 390 1432
453 1 1174 1443 1202 1446
454 2 1537 1534 1621 1535
455 2 1571 1568 1642 1569
456 2 1602 1596 1603 1597
457 2 1605 1603 1596 1604
458 2 1626 1621 1534 1622
459 2 1647 1642 1568 1643
460 2 1400 1394 1522 1395
461 2 1436 1430 1492 1431
462 2 1441 1438 1470 1439
463 2 1475 1470 1438 1471
464 2 1494 1492 1430 1493
465 2 1524 1522 1394 1523
466 1 1537 1533 1626 1536
467 1 1561 1554 1635 1557
468 1 1594 1590 1620 1593
469 2 281 278 412 279
470 2 315 312 399 313
471 2 352 349 375 350
472 2 380 375 349 376
473 2 404 399 312 400
474 2 417 412 278 413
475 1 449 442 546 445
476 1 467 463 543 466
477 1 477 473 507 476
478 1 848 289 972 292
479 1 1419 311 1508 314
480 1 85 354 89 357
481 2 449 443 544 444
482 2 457 451 529 452
483 2 485 479 508 480
484 2 510 508 479 509
485 2 531 529 451 530
486 2 546 544 443 545
487 2 1385 1382 1516 1383
488 2 1419 1416 1503 1417
489 2 1456 1453 1479 1454
490 2 1484 1479 1453 1480
491 2 1508 1503 1416 1504
492 2 1521 1516 1382 1517
493 1 1553 1546 1650 1549
494 1 1571 1567 1647 1570
495 1 1581 1577 1611 1580
496 1 1952 1393 2076 1396
497 1 315 1415 404 1418
498 1 1189 1458 1193 1461
499 2 1553 1547 1648 1548
500 2 1561 1555 1633 1556
501 2 1589 1583 1612 1584
502 2 1614 1612 1583 1613
503 2 1635 1633 1555 1634
504 2 1650 1648 1547 1649
505 1 281 829 417 832
506 1 1988 877 2046 880
507 1 622 891 650 894
508 2 985 982 1069 983
509 2 1019 1016 1090 1017
510 2 1050 1044 1051 1045
511 2 1053 1051 1044 1052
512 2 1074 1069 982 1070
513 2 1095 1090 1016 1091
514 2 848 842 970 843
515 2 884 878 940 879
516 2 889 886 918 887
517 2 923 918 886 919
518 2 942 940 878 941
519 2 972 970 842 971
520 1 985 981 1074 984
521 1 1009 1002 1083 1005
522 1 1042 1038 1068 1041
523 1 1385 1933 1521 1936
524 1 884 1981 942 1984
525 1 1726 1995 1754 1998
526 2 2089 2086 2173 2087
527 2 2123 2120 2194 2121
528 2 2154 2148 2155 2149
529 2 2157 2155 2148 2156
530 2 2178 2173 2086 2174
531 2 2199 2194 2120 2195
532 2 1952 1946 2074 1947
533 2 1988 1982 2044 1983
534 2 1993 1990 2022 1991
535 2 2027 2022 1990 2023
536 2 2046 2044 1982 2045
537 2 2076 2074 1946 2075
538 1 2089 2085 2178 2088
539 1 2113 2106 2187 2109
540 1 2146 2142 2172 2145
541 2 833 830 964 831
542 2 867 864 951 865
543 2 904 901 927 902
544 2 932 927 901 928
545 2 956 951 864 952
546 2 969 964 830 965
547 1 1001 994 1098 997
548 1 1019 1015 1095 1018
549 1 1029 1025 1059 1028
550 1 296 841 420 844
551 1 1971 863 2060 866
552 1 637 906 641 909
553 2 1001 995 1096 996
554 2 1009 1003 1081 1004
555 2 1037 1031 1060 1032
556 2 1062 1060 1031 1061
557 2 1083 1081 1003 1082
558 2 1098 1096 995 1097
559 2 1937 1934 2068 1935
560 2 1971 1968 2055 1969
561 2 2008 2005 2031 2006
562 2 2036 2031 2005 2032
563 2 2060 2055 1968 2056
564 2 2073 2068 1934 2069
565 1 2105 2098 2202 2101
566 1 2123 2119 2199 2122
567 1 2133 2129 2163 2132
568 1 1400 1945 1524 1948
569 1 867 1967 956 1970
570 1 1741 2010 1745 2013
571 2 2105 2099 2200 2100
572 2 2113 2107 2185 2108
573 2 2141 2135 2164 2136
574 2 2166 2164 2135 2165
575 2 2187 2185 2107 2186
576 2 2202 2200 2099 2201
